! Saved from nanovna library
# Hz S RI e00 e01 e11
3000000000	-0.17661858499	0.19387525618	-0.27703054292	0.49334273240	-0.13443951983	0.00285769877	
3012000000	-0.16698062420	0.20132528245	0.13507553614	0.55280501292	-0.06423195336	0.07152335091	
3024000000	-0.15417461097	0.19696752429	0.47619855050	0.32145939867	0.02019540826	0.06713964809	
3036000000	-0.14579680264	0.18431768715	0.56939215748	-0.07997646823	0.06873637608	0.01376595345	
3048000000	-0.14820078909	0.16720503271	0.36725732332	-0.44708123050	0.06900359622	-0.06165972434	
3060000000	-0.16053663492	0.15270658731	-0.03330836280	-0.57725583071	0.01735593048	-0.11337608058	
3072000000	-0.17903664410	0.14820634723	-0.41510547267	-0.40287933276	-0.05961109594	-0.11705313947	
3084000000	-0.19458412528	0.15467606485	-0.57386592656	-0.01738764164	-0.11774580089	-0.06496928837	
3096000000	-0.20116452575	0.16684832573	-0.43604561132	0.37208450386	-0.12742554605	0.00571190766	
3108000000	-0.19715562463	0.17818625271	-0.07518548635	0.56906290977	-0.08656023108	0.06603891331	
3120000000	-0.18648974895	0.18113215268	0.32810895212	0.47585122680	-0.01566764759	0.07601240056	
3132000000	-0.17199472189	0.17198204696	0.56821929917	0.13077137454	0.04606749481	0.03779781819	
3144000000	-0.16753351390	0.15446713865	0.51087247002	-0.28732656940	0.06662801796	-0.03159534141	
3156000000	-0.17523916960	0.13512670100	0.17889951914	-0.56001162656	0.03337557412	-0.08936995606	
3168000000	-0.19363179207	0.12104809582	-0.24728450925	-0.53221559826	-0.03330641462	-0.10876993150	
3180000000	-0.21461997032	0.12138775140	-0.53893908740	-0.22512817909	-0.09984326303	-0.07854390965	
3192000000	-0.23041737080	0.13349997401	-0.54681521547	0.19243343156	-0.13089349670	-0.01377947336	
3204000000	-0.23364547789	0.15113463104	-0.27731110938	0.51020789234	-0.10894463966	0.04978993264	
3216000000	-0.22127633393	0.16456671655	0.13870041710	0.56719881872	-0.05059701362	0.08044402563	
3228000000	-0.20323372483	0.16595238149	0.48525441578	0.33057745594	0.01815460852	0.06443777491	
3240000000	-0.18509186208	0.15322180092	0.58584003782	-0.08163045054	0.05727018288	0.01190701573	
3252000000	-0.17881753147	0.12958677709	0.37724975277	-0.45828025228	0.05300217100	-0.04796141437	
3264000000	-0.18727377057	0.10599264652	-0.03419089287	-0.59966175621	0.00053984872	-0.08559102360	
3276000000	-0.20784468949	0.09137326032	-0.42686503439	-0.41515336180	-0.06327984545	-0.07974825892	
3288000000	-0.23050735593	0.09286608845	-0.59101173727	-0.02002545379	-0.10672559805	-0.03472904862	
3300000000	-0.24256357551	0.10662741512	-0.44979808664	0.38002820337	-0.10748137715	0.02175445261	
3312000000	-0.24086165726	0.12483052313	-0.08087029354	0.58591255718	-0.06498748734	0.06206097547	
3324000000	-0.22279554009	0.13499425650	0.33712586440	0.49000862187	-0.01216262425	0.06360784780	
3336000000	-0.20134918690	0.12820241153	0.58135254485	0.13654024103	0.03412114726	0.03191700908	
3348000000	-0.18346135020	0.10732432008	0.52706006955	-0.29304376245	0.04168471044	-0.01872736128	
3360000000	-0.18314711154	0.07694317549	0.18835763770	-0.57094726436	0.01178971156	-0.05350039933	
3372000000	-0.19964815974	0.05277676657	-0.25216337918	-0.55191057418	-0.03794949371	-0.06469175282	
3384000000	-0.22603182793	0.04398675635	-0.55707596976	-0.23457325187	-0.08755876035	-0.03937884327	
3396000000	-0.24961650074	0.05501064733	-0.56592427319	0.19911869554	-0.10243498762	0.00580633204	
3408000000	-0.25658116937	0.07858151197	-0.28256841686	0.53116788822	-0.08368350065	0.04609786021	
3420000000	-0.24379377663	0.10156409442	0.14331066589	0.58414845949	-0.03996663496	0.06766335027	
3432000000	-0.21401286125	0.11057204306	0.50171288234	0.34064018957	0.00463726751	0.05889346768	
3444000000	-0.18115390539	0.09631617069	0.60208113593	-0.08857245207	0.02527803005	0.03015000863	
3456000000	-0.16097093225	0.06286561638	0.38870098057	-0.47801497791	0.01663636999	-0.00296354398	
3468000000	-0.16332319975	0.02256061099	-0.03870898032	-0.61395960880	-0.01327190766	-0.01914127911	
3480000000	-0.18793266416	-0.00789683890	-0.44372441244	-0.42314451802	-0.05033234164	-0.01974720904	
3492000000	-0.22254358828	-0.01548942681	-0.60928099935	-0.00724641111	-0.07142612408	0.00164655754	
3504000000	-0.25078304410	0.00214943197	-0.45488906063	0.40305993789	-0.06718454475	0.03274484032	
3516000000	-0.25636006594	0.03280632496	-0.06548467016	0.60253768269	-0.03908955093	0.06398288393	
3528000000	-0.23679382503	0.05970157534	0.35703928634	0.48736112419	-0.00485384100	0.07279993049	
3540000000	-0.20015319884	0.06704538018	0.59532958032	0.11984030172	0.02431449938	0.05862107471	
3552000000	-0.16274614334	0.04744477794	0.52387881200	-0.31350171870	0.02904220357	0.03337275416	
3564000000	-0.14239093661	0.00778438579	0.17573024659	-0.58835498449	0.01198230070	0.00843951803	
3576000000	-0.14933865070	-0.03622476161	-0.27372247347	-0.55267329852	-0.01337401616	-0.00379841757	
3588000000	-0.17962390482	-0.06559360027	-0.57011048340	-0.21750141923	-0.03930487551	0.00387336254	
3600000000	-0.21893524826	-0.06409914047	-0.55979508742	0.23307797796	-0.04569280112	0.02897583031	
3612000000	-0.24347972870	-0.03988223895	-0.25775777740	0.54701896778	-0.02900694403	0.05474290486	
3624000000	-0.24306113720	-0.00555280671	0.17292829940	0.57680213417	0.00159206702	0.07305031019	
3636000000	-0.21670071185	0.02060339302	0.51572995302	0.30309841136	0.03357405029	0.07279330011	
3648000000	-0.17509303093	0.02388723306	0.58841698850	-0.12275755683	0.04606772455	0.05040408287	
3660000000	-0.13772019446	-0.00039637238	0.35332583203	-0.48955172644	0.04217322017	0.02326073693	
3672000000	-0.12139879614	-0.04318590835	-0.06620701926	-0.60044612926	0.02057374149	0.00130287178	
3684000000	-0.13389106691	-0.08386604637	-0.45860403087	-0.38843881112	-0.00593644275	-0.00405957267	
3696000000	-0.16532026827	-0.10451001972	-0.59603450232	0.02526464854	-0.02350656218	0.01040234656	
3708000000	-0.19962570071	-0.09777413309	-0.41961293399	0.41651514528	-0.02156642115	0.03919280503	
3720000000	-0.21593173444	-0.06908559501	-0.03131517435	0.58386322075	0.00101285452	0.06619518130	
3732000000	-0.20542398691	-0.03596343100	0.37201049848	0.44830108668	0.02642071212	0.07417946001	
3744000000	-0.16925645471	-0.01552614551	0.57542782025	0.08171118620	0.04849041373	0.06118892348	
3756000000	-0.12636492252	-0.02214642838	0.48178394934	-0.32526126738	0.05458855411	0.03580648751	
3768000000	-0.09311028570	-0.05441322327	0.13412760223	-0.56395197319	0.04409246095	0.01129906521	
3780000000	-0.08589582145	-0.09844733626	-0.28563052693	-0.50677081927	0.02191239407	-0.00444424906	
3792000000	-0.10558813959	-0.13509747982	-0.54961059780	-0.17576849729	-0.00137511164	0.00356365776	
3804000000	-0.14048928916	-0.14605267942	-0.51949764695	0.23859235712	-0.00782273205	0.02876493756	
3816000000	-0.17009001374	-0.12955946624	-0.22035272282	0.52232196760	0.00186307915	0.05593496127	
3828000000	-0.17598866522	-0.09735952765	0.18873862675	0.52927375340	0.02509571080	0.07240826369	
3840000000	-0.15464441776	-0.06658567935	0.49309755937	0.26285873888	0.05035113451	0.06532711707	
3852000000	-0.11597030461	-0.05481174886	0.54052303693	-0.13440266149	0.06478784996	0.03986658512	
3864000000	-0.07540124953	-0.07003825009	0.30558560104	-0.46408770692	0.06045609401	0.01227387104	
3876000000	-0.05058547109	-0.10673514158	-0.08891589786	-0.54937441663	0.03654211360	-0.00141787434	
3888000000	-0.05343935713	-0.14810554087	-0.43749979761	-0.34173868129	0.01666645724	-0.00276987213	
3900000000	-0.07936717719	-0.17446227372	-0.54613698956	0.04424225708	0.00143086494	0.01925838081	
3912000000	-0.11066797376	-0.17326343358	-0.37055324110	0.39681745618	0.00840193086	0.04566535265	
3924000000	-0.13142649829	-0.14785021842	-0.00300582855	0.53757408877	0.02699034135	0.06427457769	
3936000000	-0.12458716929	-0.11317125112	0.35679954990	0.39720400248	0.05315659975	0.06361631060	
3948000000	-0.09443452358	-0.08935114443	0.52769372139	0.05354383009	0.06769977890	0.04144660751	
3960000000	-0.04980546162	-0.08964753151	0.42505668630	-0.31374687064	0.06200162909	0.01480853983	
3972000000	-0.01471363176	-0.11714160740	0.09795454211	-0.51912451654	0.04389995484	0.00662810544	
3984000000	-0.00196605120	-0.16027355790	-0.27997724270	-0.44528691306	0.02437511357	0.00902778684	
3996000000	-0.01846185885	-0.19840096533	-0.50134954465	-0.13573315839	0.01320733907	0.03541293461	
4008000000	-0.05209518895	-0.21412357390	-0.45467882678	0.23377325993	0.02610808555	0.06056020906	
4020000000	-0.08585343063	-0.20200680196	-0.17514196626	0.47527397015	0.04945607653	0.07679636267	
4032000000	-0.09983720332	-0.16967755556	0.18911689585	0.46792861352	0.07946927218	0.06514827682	
4044000000	-0.08627536893	-0.13381865025	0.45011879770	0.21854873851	0.09605819663	0.03575353104	
4056000000	-0.05083326697	-0.11427412927	0.47882411389	-0.14140353614	0.08785017857	0.00167533133	
4068000000	-0.00914229527	-0.12154513299	0.25610849043	-0.42942014471	0.05644443587	-0.01703835919	
4080000000	0.01861175597	-0.15243683457	-0.10409446831	-0.48755761174	0.02500255793	-0.00572344489	
4092000000	0.02041569613	-0.19175898731	-0.40300156575	-0.28323721644	0.01054162908	0.02616692087	
4104000000	-0.00357577167	-0.21839077175	-0.47937605209	0.06113686148	0.01591275043	0.06476902325	
4116000000	-0.03720556051	-0.22023740113	-0.30958456624	0.36265619171	0.04835918854	0.08252972026	
4128000000	-0.06265258566	-0.19695088267	0.01283126025	0.47408142128	0.08697833921	0.07305005561	
4140000000	-0.06362102628	-0.16038971543	0.32678888544	0.33890192874	0.11436619352	0.04451740548	
4152000000	-0.03917509839	-0.12952765822	0.46840441382	0.03139645510	0.11106449767	-0.00010609864	
4164000000	0.00263971500	-0.11983842850	0.36723581989	-0.29555627670	0.07898944367	-0.02276881678	
4176000000	0.04178207889	-0.13943563700	0.06735515014	-0.46761163506	0.03423353130	-0.01077503347	
4188000000	0.05944185778	-0.17730538547	-0.26746256907	-0.38353014197	0.01230635692	0.02516131231	
4200000000	0.04913851470	-0.21384373307	-0.44639454039	-0.09705865626	0.01705232201	0.07085398713	
4212000000	0.01658538207	-0.23249965012	-0.38950520998	0.22552550468	0.05372001583	0.09701142290	
4224000000	-0.01736642011	-0.22337850034	-0.14062275460	0.42180020187	0.10392212513	0.08455522606	
4236000000	-0.03634280562	-0.19198340178	0.17827338136	0.40542036381	0.13999329157	0.04897843408	
4248000000	-0.02884384878	-0.15381098688	0.40356591821	0.17965479062	0.14456126344	-0.00078619521	
4260000000	0.00412992649	-0.12818843126	0.42204175141	-0.14262556659	0.10798790420	-0.03364713724	
4272000000	0.04751667529	-0.12861534357	0.21085352523	-0.39512279704	0.05256264478	-0.03071717388	
4284000000	0.08040038049	-0.15689618289	-0.11555265856	-0.42945934388	0.01325016978	0.01289413336	
4296000000	0.08581961244	-0.19851734936	-0.37119638607	-0.23024438655	0.01301251939	0.06715633732	
4308000000	0.06421906650	-0.23037806451	-0.42115094115	0.07802729978	0.05161309368	0.10453728195	
4320000000	0.02816115916	-0.23862766027	-0.25911259833	0.33331016122	0.11413036321	0.10092292129	
4332000000	-0.00449726786	-0.21967496872	0.02728648293	0.41893755259	0.16552837646	0.06299275195	
4344000000	-0.01664635986	-0.18110370934	0.29987865030	0.29107029931	0.18005397404	0.00128779507	
4356000000	-0.00095029920	-0.14403516352	0.42155373671	0.01252700005	0.14982846447	-0.04870454423	
4368000000	0.03778886274	-0.12402176708	0.32154370907	-0.28124909579	0.08226936917	-0.06069964375	
4380000000	0.07900615931	-0.13409702480	0.03854029873	-0.42634481425	0.02463429059	-0.02158558853	
4392000000	0.10408058017	-0.16772936881	-0.26237748956	-0.33148939820	0.00917071356	0.04136387558	
4404000000	0.09902443737	-0.20734186471	-0.40931369975	-0.06296528393	0.04104309193	0.09652086368	
4416000000	0.07101259828	-0.23202135265	-0.33920630984	0.22066794807	0.11378765598	0.10970149103	
4428000000	0.03380279243	-0.22955385745	-0.10803447301	0.38513779759	0.17875459269	0.07274543853	
4440000000	0.00678464882	-0.20216468573	0.17732305226	0.35825711892	0.20722818827	0.01171457660	
4452000000	0.00386859942	-0.16243010759	0.37440337322	0.14818742091	0.18855910684	-0.05501550834	
4464000000	0.02859558836	-0.12871267796	0.38295313639	-0.14828352766	0.12187732962	-0.08438280686	
4476000000	0.07063540369	-0.11847377867	0.17812581548	-0.37509797342	0.04775892430	-0.05637692088	
4488000000	0.10827164501	-0.13804017305	-0.13141702668	-0.39231536895	0.01148234262	0.00862323102	
4500000000	0.12313728184	-0.17576739192	-0.35843645629	-0.18972538037	0.03475631494	0.07605788515	
4512000000	0.10819712132	-0.21163235307	-0.38368915380	0.09677144132	0.09950266456	0.10676747181	
4524000000	0.07393990755	-0.22748807371	-0.21780525657	0.32198834749	0.17726075662	0.08555948369	
4536000000	0.03892533407	-0.21679547429	0.04927543089	0.38443686130	0.22312779051	0.01837817659	
4548000000	0.01960904486	-0.18324067295	0.29565513075	0.25386744469	0.21516794944	-0.05368711703	
4560000000	0.02602157407	-0.14433898330	0.39635451528	-0.01044900698	0.15786754633	-0.10359870295	
4572000000	0.05746568441	-0.11837257445	0.28597277173	-0.28504345249	0.07038138186	-0.09434032477	
4584000000	0.09958127588	-0.11963457912	0.00806943539	-0.40586941589	0.01314255375	-0.03305696896	
4596000000	0.12845546603	-0.14838135242	-0.27352658034	-0.29440711284	0.01576709875	0.04590767253	
4608000000	0.13073292375	-0.18719612360	-0.39080745353	-0.02936853775	0.07854809284	0.09774399455	
4620000000	0.10583968312	-0.21650316417	-0.30353102678	0.23294929161	0.16544144114	0.09369386684	
4632000000	0.06899034679	-0.22149617672	-0.07235645970	0.37175376764	0.22882592164	0.03672336692	
4644000000	0.03764911294	-0.20160501003	0.19579059699	0.32635290660	0.24128788718	-0.04084786078	
4656000000	0.02550296336	-0.16380854845	0.36711898474	0.11552685132	0.19717388180	-0.11117132147	
4668000000	0.04223770723	-0.12734840512	0.35617122814	-0.16847380379	0.10766804121	-0.12475989517	
4680000000	0.07959147841	-0.11109019518	0.14113776619	-0.37462020750	0.02690199980	-0.07562733681	
4692000000	0.11860428602	-0.12395244241	-0.15979864651	-0.36623446980	0.00702613397	0.00632167865	
4704000000	0.13621584177	-0.15911860466	-0.36122985557	-0.15208303155	0.05164663128	0.07995612271	
4716000000	0.12653148770	-0.19661097229	-0.35951452822	0.12669623297	0.14342474374	0.09732751997	
4728000000	0.09402568638	-0.21859948337	-0.18097072190	0.32725439755	0.22490307146	0.05406932556	
4740000000	0.05613621101	-0.21306989491	0.08187682041	0.36511141101	0.25692615706	-0.02769431450	
4752000000	0.02930168696	-0.18514620960	0.30414066066	0.22099113901	0.23273067313	-0.11176646117	
4764000000	0.02624603137	-0.14698185921	0.38239015157	-0.04166576722	0.15009017103	-0.15218093020	
4776000000	0.05044548139	-0.11605030745	0.25556831908	-0.29956692760	0.05076306033	-0.13061906564	
4788000000	0.08812377751	-0.11059242189	-0.02698023494	-0.39868840118	-0.00300017605	-0.05250230150	
4800000000	0.11765186638	-0.13217817545	-0.29469979721	-0.26310482869	0.01600652181	0.03719249275	
4812000000	0.12326312214	-0.16865003109	-0.38543238264	0.00669595748	0.09854237428	0.08692576477	
4824000000	0.10096597821	-0.19868580699	-0.27595281760	0.25602137318	0.19428655511	0.07129925749	
4836000000	0.06406838596	-0.20685814619	-0.03405136325	0.37106717007	0.25602775334	0.00582921393	
4848000000	0.02917139418	-0.18965916634	0.22030889373	0.30201754431	0.25775357849	-0.08226996563	
4860000000	0.01189332809	-0.15300040245	0.37172634432	0.08025513560	0.19581714549	-0.14573218235	
4872000000	0.02234447785	-0.11405337453	0.33616891595	-0.19935733284	0.09911354204	-0.15927104855	
4884000000	0.05599680170	-0.09140596390	0.10490994501	-0.38565409865	0.02051276804	-0.10356493505	
4896000000	0.09466259331	-0.09786132723	-0.19533305325	-0.35042627316	0.00664061406	-0.01446531769	
4908000000	0.11680087596	-0.12927833796	-0.37648886421	-0.11783865180	0.06400850319	0.05500474760	
4920000000	0.10963026732	-0.16693651378	-0.34790367048	0.16392544680	0.15876630064	0.07154162632	
4932000000	0.07907231301	-0.19046564400	-0.14574792974	0.34753188765	0.24086842446	0.02404596601	
4944000000	0.03924515843	-0.18886567354	0.12334455728	0.35462088459	0.26559745036	-0.05450986427	
4956000000	0.00842389446	-0.16175418794	0.32900606397	0.18766927200	0.22731817519	-0.13917846119	
4968000000	0.00071919747	-0.12180050910	0.37858095239	-0.08296375860	0.14192370738	-0.17840985018	
4980000000	0.02064911500	-0.08669141382	0.22490668818	-0.32904117041	0.05035988456	-0.15408287910	
4992000000	0.05775965154	-0.07476584762	-0.07024916167	-0.39900179346	0.00308380854	-0.07489006836	
5004000000	0.09108757377	-0.09207958579	-0.32614837971	-0.23718149458	0.02878026109	0.00926213427	
5016000000	0.10043060184	-0.12714881301	-0.39202465968	0.04944713824	0.10920236069	0.05675580508	
5028000000	0.08227089942	-0.15893764496	-0.25072241892	0.29385245119	0.19978516927	0.04013529779	
5040000000	0.04536549896	-0.17044853866	0.01090197141	0.38356036804	0.24839549892	-0.02562094728	
5052000000	0.00838479791	-0.15544556081	0.26156978229	0.27735914937	0.24273699175	-0.10577336819	
5064000000	-0.01243569627	-0.11963329613	0.38557407352	0.03591969333	0.18163696776	-0.17119810098	
5076000000	-0.00548306890	-0.07851414531	0.31592554675	-0.24125258551	0.09345462972	-0.17644337797	
5088000000	0.02647234723	-0.05319433361	0.06175824909	-0.40182650871	0.02869712821	-0.12394728218	
5100000000	0.06822301149	-0.05787527338	-0.23887069295	-0.33640137148	0.02468540553	-0.04321982829	
5112000000	0.09270243198	-0.08909672052	-0.39864159886	-0.07520980498	0.08513882725	0.02985266890	
5124000000	0.08652520031	-0.12924664319	-0.33586764541	0.21086105031	0.17145095505	0.04278904097	
5136000000	0.05356097519	-0.15595024228	-0.10449059937	0.37687559585	0.23713364708	-0.00055523856	
5148000000	0.00813707802	-0.15612728298	0.17013824096	0.34692524380	0.25713150874	-0.07863000924	
5160000000	-0.02916969843	-0.12823217809	0.35624140303	0.14981194893	0.22278983605	-0.15782562671	
5172000000	-0.04277201891	-0.08232582808	0.37449820845	-0.12855232004	0.14706909597	-0.20068834329	
5184000000	-0.02527581714	-0.03741890043	0.19173177248	-0.35971446403	0.07063522900	-0.18453555925	
5196000000	0.01546752565	-0.01598496772	-0.11303251393	-0.39894785140	0.03267815273	-0.12100128706	
5208000000	0.05727496222	-0.02755477577	-0.35868305580	-0.20845887667	0.05462327784	-0.04145374811	
5220000000	0.07668724954	-0.06432584673	-0.39817510007	0.09665991249	0.12201973928	0.00408862267	
5232000000	0.06366847008	-0.10371406227	-0.22076484219	0.33847945168	0.18882225674	-0.00766575013	
5244000000	0.02603197321	-0.12484141290	0.06275041896	0.39164498575	0.22987018804	-0.06454727602	
5256000000	-0.01847262867	-0.11580652595	0.30386244054	0.24994631113	0.21871245290	-0.14648481739	
5268000000	-0.04859213382	-0.08104777783	0.39573063402	-0.01359957968	0.16763477579	-0.20332539523	
5280000000	-0.05166208297	-0.03456614912	0.28978385352	-0.28286803714	0.09640155175	-0.21574557607	
5292000000	-0.02529108264	0.00445249043	0.01791343407	-0.41083207704	0.04219674098	-0.17485960960	
5304000000	0.01647380181	0.01392900273	-0.27448447382	-0.31260705006	0.03012558442	-0.09753489457	
5316000000	0.05114581063	-0.00742597338	-0.41291420553	-0.03433241056	0.07304916254	-0.03378115531	
5328000000	0.05877544731	-0.04587530568	-0.31899005009	0.25600789471	0.13788537430	-0.01881089617	
5340000000	0.03584312126	-0.07944339067	-0.05773528693	0.39918120394	0.19093611043	-0.05301912354	
5352000000	-0.00481780153	-0.08935411870	0.22049451780	0.32962210893	0.20602384314	-0.12234095862	
5364000000	-0.04429395646	-0.07057458460	0.38010045700	0.10157118571	0.18221206806	-0.19621138115	
5376000000	-0.06448987871	-0.03049933575	0.35639224069	-0.18044731944	0.12349361321	-0.23048493833	
5388000000	-0.05645738840	0.01251674220	0.14410560890	-0.38031120365	0.05939005205	-0.21456932377	
5400000000	-0.02371716052	0.03955476061	-0.15889552591	-0.37936310750	0.02089752908	-0.15331527227	
5412000000	0.01528052054	0.03654209897	-0.37914642942	-0.16416927952	0.03122652168	-0.07852294618	
5424000000	0.03989074305	0.00758853219	-0.38759294261	0.14348904943	0.08326880098	-0.03974894951	
5436000000	0.03480056524	-0.02988416888	-0.18181051230	0.36676597783	0.14038351636	-0.04803430784	
5448000000	0.00388805829	-0.05415408462	0.11238947433	0.38589386873	0.18039480781	-0.10173225667	
5460000000	-0.03777538314	-0.05227724165	0.33552859172	0.20734845197	0.18324467004	-0.17263908089	
5472000000	-0.07081260979	-0.02433934957	0.38896213351	-0.06702965535	0.14527911360	-0.22571286487	
5484000000	-0.08109586388	0.01795024537	0.24737951341	-0.31307709510	0.08383921466	-0.23789027463	
5496000000	-0.06436267048	0.05680334866	-0.03325175286	-0.40254918820	0.02340395151	-0.20022115215	
5508000000	-0.02941590101	0.07424795032	-0.30282073295	-0.27324362998	0.00430211469	-0.13226446623	
5520000000	0.00460959040	0.06407533437	-0.41175695415	0.01192490889	0.02463069765	-0.07134716507	
5532000000	0.01899027489	0.03355722427	-0.29055336362	0.29199729061	0.07628276813	-0.05202058236	
5544000000	0.00545284450	0.00288051646	-0.01147251536	0.40723658462	0.12849939691	-0.07982235137	
5556000000	-0.02806286030	-0.00958748702	0.26324918063	0.30250176164	0.15809966729	-0.14183275702	
5568000000	-0.06388992816	0.00342469197	0.39315800786	0.05058940260	0.15013833843	-0.20082573446	
5580000000	-0.08535551131	0.03739575893	0.32763983668	-0.22475518779	0.10566097278	-0.23082113036	
5592000000	-0.08220452070	0.07762470841	0.09027952915	-0.38998255312	0.04905393160	-0.22439265660	
5604000000	-0.05629420802	0.10680175722	-0.20355004981	-0.34869398671	0.00791645783	-0.17083250359	
5616000000	-0.02032635324	0.11168526858	-0.39151025533	-0.11568239051	0.00288028105	-0.10880733840	
5628000000	0.00578297954	0.09139882475	-0.36641221002	0.18660379475	0.03294012250	-0.07442397929	
5640000000	0.00794843864	0.06091072708	-0.13639055954	0.38745758425	0.07939775174	-0.08032191182	
5652000000	-0.01451925747	0.03782236800	0.16414262958	0.37176182257	0.12166105377	-0.12242095879	
5664000000	-0.04961552247	0.03663746789	0.36529500960	0.16343805112	0.13866251880	-0.17627211914	
5676000000	-0.07918573469	0.06018672362	0.37895268094	-0.12076929972	0.12003745749	-0.22228022881	
5688000000	-0.08876330405	0.09848655313	0.19946978077	-0.34527532832	0.07442537964	-0.23369015155	
5700000000	-0.07381512970	0.13523492515	-0.08935968546	-0.39055358432	0.02408150432	-0.20312099253	
5712000000	-0.04053788558	0.15292130709	-0.33499807980	-0.22627238745	-0.00331080196	-0.15618517739	
5724000000	-0.00655046944	0.14579417109	-0.40223156822	0.06730678116	0.00652522426	-0.10992711054	
5736000000	0.01055357959	0.11900064200	-0.24671433737	0.32677234475	0.04068535744	-0.09272610968	
5748000000	0.00131833795	0.08882822841	0.04545469445	0.40446870178	0.08184441291	-0.11694904475	
5760000000	-0.02910521366	0.07355909497	0.30361890729	0.26313837641	0.11347572930	-0.16125806746	
5772000000	-0.06413546801	0.08356366158	0.39770076216	-0.00670103857	0.11523774386	-0.20921163581	
5784000000	-0.08764672726	0.11547659487	0.28964303665	-0.26980605677	0.08669914450	-0.23650217815	
5796000000	-0.08663326204	0.15555417836	0.02918362365	-0.39392579902	0.03548729552	-0.23062055054	
5808000000	-0.06235381216	0.18762892783	-0.24782729601	-0.31074763014	-0.00354687148	-0.19870243206	
5820000000	-0.02570126429	0.19786872268	-0.39714327643	-0.05863464070	-0.01502312285	-0.14907194607	
5832000000	0.00513989944	0.18241125941	-0.33151177374	0.23190532556	0.00348662648	-0.12296198328	
5844000000	0.01293479018	0.15271980166	-0.08018124989	0.39764380239	0.03532038142	-0.12755814780	
5856000000	-0.00423229057	0.12638143301	0.21285972784	0.34088764688	0.07340461098	-0.15194169054	
5868000000	-0.03807644099	0.12081138641	0.38257224901	0.10816037888	0.09483693410	-0.19467508528	
5880000000	-0.07068767697	0.14095143676	0.35162865012	-0.17437503880	0.08776147205	-0.23052882578	
5892000000	-0.08484743237	0.17986612618	0.14171118540	-0.36475438871	0.05082121160	-0.24902457898	
5904000000	-0.07360044271	0.22163990140	-0.14296379200	-0.36149132363	0.01031919531	-0.23136672209	
5916000000	-0.04120990559	0.24877102375	-0.35289873027	-0.16957619773	-0.02283027462	-0.19270391358	
5928000000	-0.00218614899	0.25180353522	-0.37753059873	0.11704702056	-0.03115133404	-0.16415964797	
5940000000	0.02396823168	0.23185065687	-0.19497987116	0.34659468918	-0.02210102837	-0.14594644015	
5952000000	0.02778813727	0.20158833563	0.09886357283	0.38808821945	0.01275613074	-0.15285102451	
5964000000	0.00655535124	0.18123182952	0.33429150893	0.21746231886	0.04570853459	-0.17546670146	
5976000000	-0.02506476827	0.18375869691	0.38916650059	-0.06358837128	0.05757270249	-0.20957629857	
5988000000	-0.04935838506	0.20894077420	0.23958459023	-0.30673126561	0.04577578958	-0.23120719948	
