! Saved from nanovna library
# Hz S RI R 50
3000000000	-0.09789409396	0.54373542537	
3012000000	-0.09298125527	0.54064440009	
3024000000	-0.07226855387	0.53887460351	
3036000000	-0.05108539155	0.54404045938	
3048000000	-0.03223364536	0.54055646486	
3060000000	-0.01920372545	0.53514780789	
3072000000	-0.00770438943	0.52943204927	
3084000000	0.00563251101	0.52396956874	
3096000000	0.01753793054	0.51914921935	
3108000000	0.02915596497	0.51007156920	
3120000000	0.04095513807	0.50006493390	
3132000000	0.05030588827	0.49157163786	
3144000000	0.06094814428	0.48160792811	
3156000000	0.07374658253	0.48102620182	
3168000000	0.08291512398	0.47011123294	
3180000000	0.09684559784	0.46491251241	
3192000000	0.10693060890	0.45910018462	
3204000000	0.11243177216	0.45325126706	
3216000000	0.11125023310	0.44740912606	
3228000000	0.12237248222	0.44569762227	
3240000000	0.13285224015	0.44483907795	
3252000000	0.14548425007	0.43503256160	
3264000000	0.15289102322	0.42341128673	
3276000000	0.16566985013	0.41776339459	
3288000000	0.17957180093	0.41763523816	
3300000000	0.19175816821	0.40872268990	
3312000000	0.20399329825	0.40130524656	
3324000000	0.20063087375	0.39817418990	
3336000000	0.20576519012	0.39561478266	
3348000000	0.21880305779	0.38701704017	
3360000000	0.23527659521	0.37354456681	
3372000000	0.24788146343	0.35462573472	
3384000000	0.26138648839	0.33965209542	
3396000000	0.27315811461	0.33278218875	
3408000000	0.27601447606	0.32728928692	
3420000000	0.28553137176	0.31827072853	
3432000000	0.28784322673	0.30483022412	
3444000000	0.28623276974	0.29460930935	
3456000000	0.29016408011	0.27223959835	
3468000000	0.29793687101	0.25264659988	
3480000000	0.30667884605	0.24219997067	
3492000000	0.31995416313	0.22818259154	
3504000000	0.32476450325	0.22051019033	
3516000000	0.32716514594	0.21410594500	
3528000000	0.32181927999	0.20535177191	
3540000000	0.31113959711	0.19301612995	
3552000000	0.31125950907	0.17415099675	
3564000000	0.31620815346	0.15511911088	
3576000000	0.31858804191	0.13434938964	
3588000000	0.32830616019	0.12126396142	
3600000000	0.33557656172	0.12035448048	
3612000000	0.34137396154	0.11493067503	
3624000000	0.33694406819	0.10356669034	
3636000000	0.32148507464	0.09165744202	
3648000000	0.31179787172	0.07733137849	
3660000000	0.30932743085	0.05623854289	
3672000000	0.31714281237	0.03804266464	
3684000000	0.31979836410	0.02869144778	
3696000000	0.32320220974	0.02229020642	
3708000000	0.32162843895	0.02697309288	
3720000000	0.31349719255	0.02395351133	
3732000000	0.30343761509	0.01830070141	
3744000000	0.28641393759	0.00538911599	
3756000000	0.27959656219	-0.01719148799	
3768000000	0.28022864647	-0.03464314164	
3780000000	0.28250474357	-0.05147085857	
3792000000	0.28519548986	-0.04785278518	
3804000000	0.29264856483	-0.04488149378	
3816000000	0.29551088994	-0.04855688800	
3828000000	0.28058773286	-0.05169414907	
3840000000	0.26428716710	-0.05746834784	
3852000000	0.25547923751	-0.07115834676	
3864000000	0.25574974517	-0.08722174488	
3876000000	0.26098527807	-0.11067479226	
3888000000	0.26225792448	-0.11991753771	
3900000000	0.26707724955	-0.13064901553	
3912000000	0.26185092406	-0.13266205345	
3924000000	0.24506768867	-0.13146172061	
3936000000	0.22245456265	-0.13452190192	
3948000000	0.21166197965	-0.14804864845	
3960000000	0.19587738036	-0.16609618813	
3972000000	0.18764255027	-0.18702456435	
3984000000	0.17937139927	-0.19770442215	
3996000000	0.17193214469	-0.19560923424	
4008000000	0.17101610704	-0.19534545977	
4020000000	0.15530899944	-0.19275080810	
4032000000	0.13135366738	-0.18873547005	
4044000000	0.11510250249	-0.19256991296	
4056000000	0.09545046410	-0.19686671167	
4068000000	0.08531317514	-0.20832924494	
4080000000	0.07279946385	-0.21139662851	
4092000000	0.06835799860	-0.20701750798	
4104000000	0.06036474685	-0.19855684680	
4116000000	0.04955566918	-0.19078587638	
4128000000	0.03331035894	-0.18578888999	
4140000000	0.01458212137	-0.18269461374	
4152000000	-0.00341727621	-0.18118988215	
4164000000	-0.00415446315	-0.17654228027	
4176000000	-0.00706750484	-0.17798681606	
4188000000	-0.00347779695	-0.17487554571	
4200000000	-0.00045659167	-0.16929899491	
4212000000	-0.00939940401	-0.16002862242	
4224000000	-0.02209171297	-0.14895854982	
4236000000	-0.03234921483	-0.13907943344	
4248000000	-0.04000545580	-0.14193953835	
4260000000	-0.04903002599	-0.14291530598	
4272000000	-0.05384337694	-0.14328444598	
4284000000	-0.04800297815	-0.14786662504	
4296000000	-0.05876682857	-0.14962088376	
4308000000	-0.06330512499	-0.13678029253	
4320000000	-0.06803006551	-0.12430489515	
4332000000	-0.07072398716	-0.11903922030	
4344000000	-0.07863849806	-0.12056141137	
4356000000	-0.08877001522	-0.11630647499	
4368000000	-0.09042984130	-0.11364088382	
4380000000	-0.08845264733	-0.10791335270	
4392000000	-0.08713114262	-0.10080831683	
4404000000	-0.08853332047	-0.09296463252	
4416000000	-0.08838289307	-0.08674032951	
4428000000	-0.10092160730	-0.08135673916	
4440000000	-0.11309142838	-0.07348897411	
4452000000	-0.11355243168	-0.06498628520	
4464000000	-0.11366443836	-0.06098771424	
4476000000	-0.10585061210	-0.05752522576	
4488000000	-0.10188283812	-0.05538856732	
4500000000	-0.10422661106	-0.05214281926	
4512000000	-0.11045412228	-0.03558715483	
4524000000	-0.10973430758	-0.02784297109	
4536000000	-0.10492471366	-0.01607887751	
4548000000	-0.10824926383	-0.01273441616	
4560000000	-0.10372276487	-0.00979223157	
4572000000	-0.09640631366	-0.00982763660	
4584000000	-0.09883948277	-0.00721598990	
4596000000	-0.09292430567	0.00226374349	
4608000000	-0.08459811367	0.00690365442	
4620000000	-0.07591189382	0.01076547326	
4632000000	-0.07188664980	0.01204229691	
4644000000	-0.06908659913	0.01617718027	
4656000000	-0.06651987927	0.01769351502	
4668000000	-0.05829206581	0.02461501856	
4680000000	-0.05331684137	0.02863061696	
4692000000	-0.05217123577	0.02552202786	
4704000000	-0.05438673118	0.02378201071	
4716000000	-0.05748338736	0.01778920396	
4728000000	-0.05564473329	0.01075659449	
4740000000	-0.04848397279	0.01343349824	
4752000000	-0.03604283904	0.00611226674	
4764000000	-0.02382177660	0.00782172257	
4776000000	-0.02167933867	0.00713517930	
4788000000	-0.02159730167	0.01534756386	
4800000000	-0.02445141893	0.01493630905	
4812000000	-0.02567825905	0.01161703060	
4824000000	-0.02665616018	-0.00142144356	
4836000000	-0.02253281675	-0.01014871611	
4848000000	-0.01537773263	-0.01738577446	
4860000000	-0.01150875973	-0.01898885257	
4872000000	-0.00002109602	-0.01074276362	
4884000000	0.00751823029	-0.00827263679	
4896000000	0.00585059187	-0.01232919956	
4908000000	-0.00441512630	-0.02010966531	
4920000000	-0.01573548681	-0.03105199341	
4932000000	-0.01694730824	-0.03968863123	
4944000000	-0.00728096112	-0.05063622360	
4956000000	-0.00031871034	-0.06083533243	
4968000000	0.00924387567	-0.06415778393	
4980000000	0.00831641987	-0.05913845069	
4992000000	0.00332876660	-0.05637552789	
5004000000	-0.00991129830	-0.05811332492	
5016000000	-0.02474900424	-0.06459014071	
5028000000	-0.03413580926	-0.07397377583	
5040000000	-0.03005510783	-0.08889721612	
5052000000	-0.02167770578	-0.10528523994	
5064000000	-0.01956182509	-0.11150215442	
5076000000	-0.01249509614	-0.10514995451	
5088000000	-0.01320473770	-0.09896220650	
5100000000	-0.01940687644	-0.09583237350	
5112000000	-0.03426176089	-0.10061165117	
5124000000	-0.04592033344	-0.10907546928	
5136000000	-0.04934347929	-0.12348000573	
5148000000	-0.04779386175	-0.14006713435	
5160000000	-0.04112788835	-0.15363398971	
5172000000	-0.03423309656	-0.16121003915	
5184000000	-0.03207116904	-0.16066371794	
5196000000	-0.03695682758	-0.16013428919	
5208000000	-0.05232348074	-0.16230658163	
5220000000	-0.06810215906	-0.16619282998	
5232000000	-0.08114086618	-0.17522163995	
5244000000	-0.09047988818	-0.19051158021	
5256000000	-0.09759650854	-0.20604482681	
5268000000	-0.10205045093	-0.21593145504	
5280000000	-0.10443530721	-0.21209919096	
5292000000	-0.11060672791	-0.21779273445	
5304000000	-0.12833033454	-0.21172223760	
5316000000	-0.14176042504	-0.21093385010	
5328000000	-0.15965218640	-0.21691382341	
5340000000	-0.16798681270	-0.22776102181	
5352000000	-0.17643945911	-0.23516403368	
5364000000	-0.18384716895	-0.24044547352	
5376000000	-0.18581538061	-0.22924645766	
5388000000	-0.19005791702	-0.22055226196	
5400000000	-0.20170069569	-0.21705562222	
5412000000	-0.22407360294	-0.21846528924	
5424000000	-0.24513328041	-0.21734325402	
5436000000	-0.25803796350	-0.21799059367	
5448000000	-0.26144691478	-0.22649415375	
5460000000	-0.26316484327	-0.23369675585	
5472000000	-0.26624942118	-0.22945655506	
5484000000	-0.27320279450	-0.21647657919	
5496000000	-0.28399985324	-0.20802018112	
5508000000	-0.30505302963	-0.19919095454	
5520000000	-0.32677456852	-0.19323017797	
5532000000	-0.34061120045	-0.19780888223	
5544000000	-0.35107815727	-0.21020795259	
5556000000	-0.35355099661	-0.21604600038	
5568000000	-0.35412249062	-0.21147714301	
5580000000	-0.34782433404	-0.19886105526	
5592000000	-0.35045913757	-0.18307072335	
5604000000	-0.36375173747	-0.16400630664	
5616000000	-0.37891828194	-0.15027315929	
5628000000	-0.40247003487	-0.14196448402	
5640000000	-0.42156118276	-0.14314943193	
5652000000	-0.43028998291	-0.14922899484	
5664000000	-0.43198794845	-0.14863684624	
5676000000	-0.42915577700	-0.14597132167	
5688000000	-0.42957650329	-0.13847783721	
5700000000	-0.43804882280	-0.13120818156	
5712000000	-0.44892842879	-0.12094969341	
5724000000	-0.46036334392	-0.11687249095	
5736000000	-0.46886782078	-0.11546255138	
5748000000	-0.47837385563	-0.11403553695	
5760000000	-0.48528213659	-0.11178434576	
5772000000	-0.48737928254	-0.10773407755	
5784000000	-0.48153299280	-0.09724595238	
5796000000	-0.48522373674	-0.08843787620	
5808000000	-0.49780098122	-0.06948911523	
5820000000	-0.50922446299	-0.05720929348	
5832000000	-0.52047354856	-0.05072061075	
5844000000	-0.53226802380	-0.05286138698	
5856000000	-0.54161740720	-0.05266778494	
5868000000	-0.53952514587	-0.04608280297	
5880000000	-0.53002356415	-0.03309524542	
5892000000	-0.52087663482	-0.01592140753	
5904000000	-0.53340608821	0.00430507527	
5916000000	-0.54384029975	0.01738718922	
5928000000	-0.56033345400	0.03205147944	
5940000000	-0.57313552234	0.03579274618	
5952000000	-0.57888081351	0.03617748270	
5964000000	-0.58277411200	0.03457833144	
5976000000	-0.57445196183	0.03907247372	
5988000000	-0.57065160128	0.04822796219	
