! Saved from nanovna library
# Hz S RI R 50
3000000000	-0.07410306029	0.51244638312	
3012000000	-0.07273308685	0.50288707887	
3024000000	-0.06140521043	0.49636282525	
3036000000	-0.05429535403	0.49837309712	
3048000000	-0.04825967616	0.50079665299	
3060000000	-0.04088899870	0.50131509941	
3072000000	-0.03843474627	0.49780241019	
3084000000	-0.03674352514	0.50412790804	
3096000000	-0.02970613869	0.51424172234	
3108000000	-0.01488737546	0.51875123276	
3120000000	0.00080172950	0.51816564697	
3132000000	0.01836528017	0.52077451721	
3144000000	0.03784083292	0.51919352527	
3156000000	0.06139127863	0.51909967058	
3168000000	0.08051875815	0.50962861607	
3180000000	0.10264271998	0.50143933785	
3192000000	0.12162420006	0.49323958901	
3204000000	0.13131284483	0.48499789759	
3216000000	0.13448071991	0.47215481767	
3228000000	0.14769031324	0.46616412595	
3240000000	0.16169907442	0.46183393091	
3252000000	0.17278814982	0.45049554834	
3264000000	0.18572181573	0.43309051172	
3276000000	0.19948172189	0.42025236778	
3288000000	0.20989552266	0.41483664593	
3300000000	0.21919363974	0.40404797000	
3312000000	0.23101690896	0.39453058499	
3324000000	0.23077137057	0.38836930237	
3336000000	0.23039553576	0.37871226745	
3348000000	0.23732252701	0.36540033880	
3360000000	0.24637505858	0.35384639949	
3372000000	0.25452353574	0.33648137590	
3384000000	0.26604260720	0.32064668098	
3396000000	0.27128472358	0.31605510932	
3408000000	0.27139135063	0.31255370730	
3420000000	0.27726411153	0.30974390570	
3432000000	0.28406100688	0.30055351565	
3444000000	0.28147242870	0.29002176047	
3456000000	0.28807099455	0.27359473518	
3468000000	0.30250060507	0.25651515448	
3480000000	0.31510877484	0.24023841856	
3492000000	0.32709292921	0.22225202233	
3504000000	0.33308127431	0.21270502784	
3516000000	0.33610857874	0.20373808719	
3528000000	0.32871212348	0.19624485444	
3540000000	0.32191286009	0.17885447870	
3552000000	0.32090409520	0.15525759438	
3564000000	0.31950469709	0.12948375679	
3576000000	0.31549917478	0.10848446261	
3588000000	0.32024911665	0.10051830702	
3600000000	0.32940359473	0.09705403684	
3612000000	0.33128296805	0.09202079306	
3624000000	0.32116106793	0.07794915099	
3636000000	0.30142037321	0.07323103978	
3648000000	0.29310490836	0.06475616774	
3660000000	0.29059355584	0.04662679634	
3672000000	0.30079675563	0.02696429613	
3684000000	0.30107462565	0.02258433448	
3696000000	0.30546242863	0.02201722509	
3708000000	0.30605670977	0.02423834171	
3720000000	0.29963160608	0.02529262463	
3732000000	0.29190010770	0.02226209450	
3744000000	0.27737751363	0.00981626151	
3756000000	0.27487864532	-0.01234497241	
3768000000	0.27880215033	-0.03244465550	
3780000000	0.28241107627	-0.05044517723	
3792000000	0.28654319064	-0.05027163092	
3804000000	0.29491724375	-0.05233262584	
3816000000	0.29066607964	-0.05672868485	
3828000000	0.28135671994	-0.05718553436	
3840000000	0.26571285243	-0.06537923508	
3852000000	0.25451629109	-0.08299254681	
3864000000	0.25061591823	-0.09901543193	
3876000000	0.25127182771	-0.11576825453	
3888000000	0.25568687831	-0.12644047312	
3900000000	0.25771867113	-0.13329731308	
3912000000	0.25213496321	-0.13287675598	
3924000000	0.23493533253	-0.13095412896	
3936000000	0.21315003367	-0.12974024185	
3948000000	0.20217304792	-0.14145790003	
3960000000	0.18951020555	-0.15962365603	
3972000000	0.18193539923	-0.17632996197	
3984000000	0.17907049432	-0.18738241196	
3996000000	0.17819069699	-0.19045524210	
4008000000	0.17250811644	-0.19257911178	
4020000000	0.15659372566	-0.18962876895	
4032000000	0.13616022422	-0.18395757777	
4044000000	0.11717405207	-0.19040353935	
4056000000	0.09628482840	-0.19545015935	
4068000000	0.08432366427	-0.20030557900	
4080000000	0.07675066816	-0.20275542155	
4092000000	0.07411224934	-0.19903224352	
4104000000	0.06904409751	-0.19394028296	
4116000000	0.05693583839	-0.18947769062	
4128000000	0.03774113272	-0.18279718435	
4140000000	0.02041985449	-0.17606054630	
4152000000	0.00664516849	-0.17855016973	
4164000000	0.00402431272	-0.17571838234	
4176000000	0.00253552986	-0.17767009810	
4188000000	0.00759582349	-0.17782228747	
4200000000	0.00539131906	-0.17395894613	
4212000000	-0.00180388342	-0.16507653086	
4224000000	-0.01268657168	-0.15613100304	
4236000000	-0.02756062439	-0.14591311407	
4248000000	-0.03494575311	-0.14649763945	
4260000000	-0.04335487113	-0.14781966631	
4272000000	-0.04823874583	-0.14978201454	
4284000000	-0.04542748800	-0.15364337415	
4296000000	-0.05430601284	-0.15461804916	
4308000000	-0.06094236512	-0.14316437749	
4320000000	-0.06397949378	-0.13163718774	
4332000000	-0.06982846313	-0.12511886612	
4344000000	-0.08011014742	-0.12770976534	
4356000000	-0.09139856449	-0.12014500020	
4368000000	-0.09698322644	-0.11566275562	
4380000000	-0.09317404483	-0.10664255893	
4392000000	-0.09046527426	-0.09878951064	
4404000000	-0.09330498804	-0.09043653332	
4416000000	-0.09336349941	-0.08310621268	
4428000000	-0.10396005093	-0.07417236398	
4440000000	-0.11278642913	-0.06632914742	
4452000000	-0.11343402058	-0.05745612474	
4464000000	-0.11126617881	-0.05475355541	
4476000000	-0.10076736381	-0.05204687262	
4488000000	-0.09538259562	-0.05116958938	
4500000000	-0.09566092892	-0.04614310223	
4512000000	-0.10112575984	-0.03421302248	
4524000000	-0.10015143150	-0.02953843719	
4536000000	-0.09969789868	-0.01950610117	
4548000000	-0.10205860473	-0.01563214658	
4560000000	-0.09748311055	-0.01393643875	
4572000000	-0.09133006399	-0.01511691507	
4584000000	-0.09197418242	-0.01371784261	
4596000000	-0.08715701248	-0.00714894824	
4608000000	-0.08263511222	-0.00468989534	
4620000000	-0.07797532765	0.00109279533	
4632000000	-0.07707845924	0.00326944150	
4644000000	-0.07680592887	0.00959207910	
4656000000	-0.07345606769	0.01446706663	
4668000000	-0.06520696506	0.02144112295	
4680000000	-0.06081452871	0.02397108632	
4692000000	-0.06468571967	0.02515504438	
4704000000	-0.06506572354	0.02779562192	
4716000000	-0.06375197529	0.02280639172	
4728000000	-0.05931598685	0.01875311578	
4740000000	-0.05044015070	0.01898206419	
4752000000	-0.03681529999	0.01396262241	
4764000000	-0.02132475694	0.01533671491	
4776000000	-0.01574395972	0.01217769160	
4788000000	-0.01525569803	0.01844268069	
4800000000	-0.01791650715	0.01599118048	
4812000000	-0.02100904583	0.01042104354	
4824000000	-0.02269779307	-0.00110215482	
4836000000	-0.01626950781	-0.01072681379	
4848000000	-0.01197330477	-0.02023339368	
4860000000	-0.00428360241	-0.02397085454	
4872000000	0.00319398343	-0.01843333023	
4884000000	0.00924355415	-0.01661618674	
4896000000	0.00670060294	-0.02036582770	
4908000000	-0.00403401679	-0.02757180013	
4920000000	-0.01951506978	-0.03775558578	
4932000000	-0.02032206124	-0.04649751442	
4944000000	-0.01490253923	-0.05743123804	
4956000000	-0.00491059204	-0.06432106986	
4968000000	0.00107659034	-0.06747897635	
4980000000	0.00156788153	-0.06148007522	
4992000000	-0.00568681656	-0.05725943684	
5004000000	-0.01863913941	-0.05631752154	
5016000000	-0.03168587514	-0.06019558567	
5028000000	-0.03840173227	-0.07048375326	
5040000000	-0.03496078006	-0.08517820506	
5052000000	-0.02735191176	-0.10014542356	
5064000000	-0.02305441711	-0.10520827732	
5076000000	-0.01537054246	-0.10025809622	
5088000000	-0.01554009759	-0.09290240095	
5100000000	-0.02075700915	-0.09075788132	
5112000000	-0.03386846415	-0.09467237095	
5124000000	-0.04467649743	-0.10477449793	
5136000000	-0.04824340420	-0.11928093024	
5148000000	-0.04503845462	-0.13945489191	
5160000000	-0.03997758813	-0.15249463611	
5172000000	-0.03561357065	-0.15726147826	
5184000000	-0.03164151392	-0.15571357427	
5196000000	-0.03552713234	-0.15425518959	
5208000000	-0.04975125589	-0.15830298539	
5220000000	-0.06548827410	-0.16221613503	
5232000000	-0.07945859706	-0.17368542444	
5244000000	-0.08833864432	-0.18946215273	
5256000000	-0.09362849176	-0.20090664510	
5268000000	-0.09307906025	-0.21051134706	
5280000000	-0.09778791351	-0.21083683338	
5292000000	-0.10588752222	-0.21555155069	
5304000000	-0.12202217583	-0.21163187318	
5316000000	-0.13508799179	-0.21244327560	
5328000000	-0.15276298566	-0.22003678412	
5340000000	-0.16296025527	-0.22977628985	
5352000000	-0.17136127472	-0.24000904736	
5364000000	-0.18115914041	-0.24055702352	
5376000000	-0.18500663257	-0.23334194317	
5388000000	-0.18991678878	-0.22513960630	
5400000000	-0.20322594962	-0.22191222476	
5412000000	-0.22683850538	-0.22062506522	
5424000000	-0.24971559433	-0.21903050754	
5436000000	-0.26377612978	-0.21820187293	
5448000000	-0.27012747585	-0.22475119934	
5460000000	-0.26971261121	-0.23236207111	
5472000000	-0.27264607518	-0.22983674893	
5484000000	-0.27804101910	-0.21742583364	
5496000000	-0.28919980206	-0.20621858899	
5508000000	-0.30683587665	-0.19760717484	
5520000000	-0.32553574418	-0.19052847500	
5532000000	-0.33973840754	-0.19636032539	
5544000000	-0.35082925323	-0.20579640574	
5556000000	-0.35592798652	-0.21129227630	
5568000000	-0.35659033584	-0.20657069303	
5580000000	-0.35124513912	-0.19624609643	
5592000000	-0.35447963521	-0.17955334595	
5604000000	-0.36381806139	-0.16078988594	
5616000000	-0.38200219808	-0.14909235641	
5628000000	-0.40381636478	-0.14266074496	
5640000000	-0.41957850340	-0.14098381498	
5652000000	-0.42734999528	-0.14526555694	
5664000000	-0.43057418702	-0.14561103807	
5676000000	-0.42700715647	-0.14255906315	
5688000000	-0.42507178912	-0.13506758583	
5700000000	-0.43298761323	-0.12503746865	
5712000000	-0.44466977684	-0.11143163717	
5724000000	-0.45644901853	-0.10692278522	
5736000000	-0.46827389300	-0.10736089387	
5748000000	-0.47694616870	-0.11173466050	
5760000000	-0.47965008707	-0.11472630196	
5772000000	-0.47671783645	-0.10776189421	
5784000000	-0.47064209009	-0.09762816395	
5796000000	-0.47553749189	-0.08662199556	
5808000000	-0.49025474954	-0.07102052314	
5820000000	-0.50393567727	-0.06243868908	
5832000000	-0.51623821463	-0.05948762947	
5844000000	-0.52736130300	-0.06196862870	
5856000000	-0.53550749581	-0.06084907205	
5868000000	-0.53502994834	-0.05515166173	
5880000000	-0.52887194465	-0.04294649663	
5892000000	-0.51955185700	-0.02243991595	
5904000000	-0.52884468472	-0.00349635966	
5916000000	-0.54474333778	0.01393030866	
5928000000	-0.56472348613	0.03160447572	
5940000000	-0.57993474723	0.03436158282	
5952000000	-0.58582735287	0.03553051040	
5964000000	-0.58953989334	0.03379031226	
5976000000	-0.58259568733	0.03950449630	
5988000000	-0.57681228946	0.04833075424	
