! Saved from nanovna library
# Hz S RI R 50
3000000000	-0.08736047935	0.50376999706	
3012000000	-0.08672395391	0.49686160427	
3024000000	-0.07625209506	0.49428721861	
3036000000	-0.06687808961	0.50180907465	
3048000000	-0.05736741147	0.50212470478	
3060000000	-0.05103289174	0.50209763298	
3072000000	-0.04872050572	0.50155220146	
3084000000	-0.04526514112	0.51017380932	
3096000000	-0.03447407626	0.52095364956	
3108000000	-0.01771604524	0.52674061008	
3120000000	0.00134313866	0.52464821201	
3132000000	0.02078189281	0.52687391074	
3144000000	0.04096909696	0.52241815881	
3156000000	0.06514113349	0.52096442553	
3168000000	0.08458960014	0.50990679042	
3180000000	0.10698097038	0.49939736830	
3192000000	0.12497049267	0.49219704350	
3204000000	0.13587453210	0.47985576783	
3216000000	0.13911345239	0.46614861235	
3228000000	0.15143954394	0.45608498326	
3240000000	0.16146216567	0.44658785024	
3252000000	0.17048752911	0.43453120490	
3264000000	0.17846482122	0.41676738247	
3276000000	0.18652032084	0.40628333532	
3288000000	0.19590928266	0.40135171212	
3300000000	0.19984415462	0.39423520293	
3312000000	0.20917937054	0.38948038255	
3324000000	0.20564898993	0.38791398377	
3336000000	0.20452907265	0.38433350677	
3348000000	0.21349379724	0.37595570830	
3360000000	0.22366961327	0.37025388076	
3372000000	0.23560092154	0.35624795514	
3384000000	0.24979805428	0.34383889596	
3396000000	0.26005055970	0.34372731080	
3408000000	0.26381498590	0.34181267746	
3420000000	0.27597276885	0.33797007165	
3432000000	0.28743615024	0.33001137174	
3444000000	0.29248314165	0.31724970367	
3456000000	0.30345813714	0.29376124421	
3468000000	0.31538373170	0.27406474631	
3480000000	0.32871677218	0.25886548829	
3492000000	0.34325715709	0.24480809750	
3504000000	0.35402243827	0.22516815713	
3516000000	0.35292762962	0.21127544793	
3528000000	0.34627167494	0.20434300122	
3540000000	0.34093226255	0.18519701148	
3552000000	0.33851145540	0.15785507148	
3564000000	0.33668738823	0.13128929246	
3576000000	0.33010517834	0.10941252719	
3588000000	0.33502951387	0.10127732562	
3600000000	0.34321976300	0.09403676424	
3612000000	0.33976333874	0.08811325722	
3624000000	0.32943840856	0.07341472997	
3636000000	0.30893688575	0.06943737427	
3648000000	0.29665231058	0.05824842864	
3660000000	0.29059086422	0.04027562832	
3672000000	0.29455893544	0.02478565078	
3684000000	0.29287641864	0.02090032269	
3696000000	0.29693844188	0.02556612879	
3708000000	0.30137303096	0.03152004545	
3720000000	0.29675751608	0.02914978827	
3732000000	0.28497704469	0.02091586950	
3744000000	0.26554116645	0.01522667168	
3756000000	0.26206464863	-0.00084046860	
3768000000	0.26614558374	-0.01947816783	
3780000000	0.27573489754	-0.03127868908	
3792000000	0.28148037546	-0.03238723929	
3804000000	0.29060205412	-0.03121167064	
3816000000	0.29231532898	-0.03191062487	
3828000000	0.28303393879	-0.03360063033	
3840000000	0.26963410437	-0.04224903270	
3852000000	0.26178968852	-0.06031892968	
3864000000	0.26158131028	-0.08102205472	
3876000000	0.26349097053	-0.09725972369	
3888000000	0.26814086894	-0.11071081723	
3900000000	0.27038331485	-0.12004434004	
3912000000	0.26660660874	-0.11869420807	
3924000000	0.25342226899	-0.11988605018	
3936000000	0.23093315909	-0.12320165907	
3948000000	0.21942068066	-0.13795188829	
3960000000	0.20244275856	-0.16240729387	
3972000000	0.19407918680	-0.17847974552	
3984000000	0.18245082797	-0.19170987947	
3996000000	0.17829956025	-0.19122642222	
4008000000	0.17422996535	-0.19041618330	
4020000000	0.15714722384	-0.18742647216	
4032000000	0.13628030343	-0.18163362208	
4044000000	0.11456744132	-0.18609549396	
4056000000	0.09402200578	-0.18939116607	
4068000000	0.08498700569	-0.19216591802	
4080000000	0.07886767911	-0.19299661143	
4092000000	0.07790390715	-0.19069807576	
4104000000	0.07332386976	-0.18309845757	
4116000000	0.06393169153	-0.17342633755	
4128000000	0.04945239055	-0.17032524585	
4140000000	0.03608029665	-0.17023110875	
4152000000	0.02248745076	-0.17394056735	
4164000000	0.02039704374	-0.17442981151	
4176000000	0.01859426620	-0.18010514258	
4188000000	0.02093242018	-0.18101413221	
4200000000	0.02049674399	-0.17667811811	
4212000000	0.01100051936	-0.16798044023	
4224000000	-0.00030830205	-0.16222220375	
4236000000	-0.01528166230	-0.15637797028	
4248000000	-0.02546289801	-0.15720886126	
4260000000	-0.04056923466	-0.15777703594	
4272000000	-0.04279663623	-0.15956607700	
4284000000	-0.04242959172	-0.16368031584	
4296000000	-0.05347589602	-0.16373632306	
4308000000	-0.06062405683	-0.14837912176	
4320000000	-0.06490914406	-0.13888555811	
4332000000	-0.07141696364	-0.13280472590	
4344000000	-0.08023193913	-0.13331586305	
4356000000	-0.09088726190	-0.12568496164	
4368000000	-0.09409094709	-0.12097036707	
4380000000	-0.08925934585	-0.11412636957	
4392000000	-0.08609332747	-0.10845088186	
4404000000	-0.08949481781	-0.10228880248	
4416000000	-0.09366307510	-0.09366944050	
4428000000	-0.10339386795	-0.08278693557	
4440000000	-0.11011095067	-0.07953465946	
4452000000	-0.11063381971	-0.07210422885	
4464000000	-0.11155099916	-0.07026465333	
4476000000	-0.10588611002	-0.06703096725	
4488000000	-0.10401153774	-0.06383874669	
4500000000	-0.10576799418	-0.05728792155	
4512000000	-0.10862094234	-0.04421914257	
4524000000	-0.10976464599	-0.03853485489	
4536000000	-0.10793842223	-0.02855805913	
4548000000	-0.11386736543	-0.02347038820	
4560000000	-0.11000891930	-0.02181220720	
4572000000	-0.10653792753	-0.01888081112	
4584000000	-0.10641192518	-0.01353750448	
4596000000	-0.10091989974	-0.00401321849	
4608000000	-0.09418051633	-0.00202439626	
4620000000	-0.09291367964	0.00437878609	
4632000000	-0.09002981717	0.00832403958	
4644000000	-0.08765595510	0.01722887747	
4656000000	-0.08164757469	0.01973263852	
4668000000	-0.07309645194	0.02838737364	
4680000000	-0.06649346610	0.03443169231	
4692000000	-0.06654002514	0.03270938680	
4704000000	-0.06688494553	0.03347096014	
4716000000	-0.06432276980	0.02916622470	
4728000000	-0.05993408329	0.02544148800	
4740000000	-0.04938834132	0.02483151525	
4752000000	-0.03543577541	0.02147401804	
4764000000	-0.01808815181	0.01954902189	
4776000000	-0.01577270795	0.01642273914	
4788000000	-0.01817164409	0.02142049036	
4800000000	-0.01878291379	0.02100180639	
4812000000	-0.02175297913	0.01639546883	
4824000000	-0.02174392578	0.00295368473	
4836000000	-0.01731215651	-0.00946575966	
4848000000	-0.01315074186	-0.01572206688	
4860000000	-0.00624394796	-0.02022974446	
4872000000	0.00141333734	-0.01418750343	
4884000000	0.00813963010	-0.00948477944	
4896000000	0.00502004318	-0.01422152128	
4908000000	-0.00573403749	-0.02038910617	
4920000000	-0.01835913048	-0.02989180578	
4932000000	-0.01877054703	-0.03913744616	
4944000000	-0.01246724276	-0.04845249475	
4956000000	-0.00297890420	-0.05677587731	
4968000000	0.00708395649	-0.05861067261	
4980000000	0.00697286105	-0.05404941422	
4992000000	0.00021443136	-0.04996432367	
5004000000	-0.01142002810	-0.04968619420	
5016000000	-0.02296616854	-0.05564556325	
5028000000	-0.02803348854	-0.06750954041	
5040000000	-0.02573283389	-0.08386674502	
5052000000	-0.01832619027	-0.10043577721	
5064000000	-0.01284148462	-0.10493123918	
5076000000	-0.00462951025	-0.10088080297	
5088000000	-0.00321493295	-0.09730655649	
5100000000	-0.01022437437	-0.09706803126	
5112000000	-0.02684874714	-0.10381571376	
5124000000	-0.03764319343	-0.11287357899	
5136000000	-0.04179123850	-0.13018651562	
5148000000	-0.03999123826	-0.14756020020	
5160000000	-0.03570510652	-0.16069071760	
5172000000	-0.03102634663	-0.16556474309	
5184000000	-0.02824502421	-0.16430420412	
5196000000	-0.03456131043	-0.16471993278	
5208000000	-0.05099113657	-0.16763156383	
5220000000	-0.06808514693	-0.16873476505	
5232000000	-0.08164460458	-0.17907557770	
5244000000	-0.08881189957	-0.19481167532	
5256000000	-0.09596745102	-0.20865257587	
5268000000	-0.09936855357	-0.21810854069	
5280000000	-0.10208780088	-0.21866144529	
5292000000	-0.11128367079	-0.21756586062	
5304000000	-0.12712094520	-0.21196052322	
5316000000	-0.13951804135	-0.21330163974	
5328000000	-0.15720423058	-0.21871491028	
5340000000	-0.16632607673	-0.22856326773	
5352000000	-0.17309987101	-0.24151419595	
5364000000	-0.18580946480	-0.24028007134	
5376000000	-0.18878023988	-0.23160653857	
5388000000	-0.19159472874	-0.22182600012	
5400000000	-0.20264910591	-0.22032473792	
5412000000	-0.22776663164	-0.21948157779	
5424000000	-0.24980684928	-0.21837223211	
5436000000	-0.26367306533	-0.21911728287	
5448000000	-0.26994792487	-0.22344149532	
5460000000	-0.26972518637	-0.23413626802	
5472000000	-0.27182280240	-0.22743240161	
5484000000	-0.27769905492	-0.21631041796	
5496000000	-0.28852640201	-0.20621653499	
5508000000	-0.30776948843	-0.19497304538	
5520000000	-0.32579601554	-0.19015485608	
5532000000	-0.34081908941	-0.19528131847	
5544000000	-0.35056419449	-0.20614306398	
5556000000	-0.35610347189	-0.21387644478	
5568000000	-0.35671690501	-0.20774006346	
5580000000	-0.35154859767	-0.19461765217	
5592000000	-0.35400345944	-0.18169523328	
5604000000	-0.36657375992	-0.16317178450	
5616000000	-0.38217837045	-0.15205837226	
5628000000	-0.40467456401	-0.14495610443	
5640000000	-0.41938244136	-0.14491423849	
5652000000	-0.42798352040	-0.14961280647	
5664000000	-0.43153862788	-0.15086208476	
5676000000	-0.42772047749	-0.14542566135	
5688000000	-0.42734798297	-0.13872604901	
5700000000	-0.43572882654	-0.12636867893	
5712000000	-0.44770116862	-0.11611279789	
5724000000	-0.45888263616	-0.11010285933	
5736000000	-0.47070843416	-0.11145849678	
5748000000	-0.48022162261	-0.11421145089	
5760000000	-0.48282742235	-0.11564384871	
5772000000	-0.48147534621	-0.10678432180	
5784000000	-0.47701738088	-0.09673285819	
5796000000	-0.48126842354	-0.08553185208	
5808000000	-0.49539647541	-0.06610495053	
5820000000	-0.50548053050	-0.05654639552	
5832000000	-0.51734067757	-0.05322480470	
5844000000	-0.52682369472	-0.05563164620	
5856000000	-0.53337676841	-0.05479613055	
5868000000	-0.53140209812	-0.04881396006	
5880000000	-0.52311370043	-0.03713808876	
5892000000	-0.51367607223	-0.01879454510	
5904000000	-0.52694032367	0.00264526215	
5916000000	-0.53924914315	0.01590401557	
5928000000	-0.55791665133	0.03184885813	
5940000000	-0.57363610244	0.03429137910	
5952000000	-0.58081932419	0.03523033815	
5964000000	-0.58557867190	0.03259743183	
5976000000	-0.57874708850	0.03479813809	
5988000000	-0.57304196763	0.04723920944	
