! Saved from nanovna library
# Hz S RI R 50
3000000000	-0.08313724084	0.51389375615	
3012000000	-0.07982636742	0.50782433222	
3024000000	-0.07178976684	0.50341045208	
3036000000	-0.05435379362	0.50742112642	
3048000000	-0.04127910801	0.50598500612	
3060000000	-0.03243144531	0.50233108842	
3072000000	-0.02799859862	0.49523013938	
3084000000	-0.02611463595	0.49684875788	
3096000000	-0.02094592113	0.50275631917	
3108000000	-0.00849561862	0.50285728308	
3120000000	0.00246804755	0.49709515250	
3132000000	0.01190613121	0.49946755941	
3144000000	0.02472243477	0.50012889965	
3156000000	0.04455513265	0.50490606130	
3168000000	0.06111721294	0.50150437139	
3180000000	0.08211965621	0.49632862043	
3192000000	0.10138653438	0.49482537412	
3204000000	0.11437212962	0.48852523371	
3216000000	0.12305393909	0.47739592886	
3228000000	0.13918063401	0.46799243382	
3240000000	0.15495877247	0.46068336227	
3252000000	0.16888934860	0.44795217371	
3264000000	0.17897786390	0.42696192296	
3276000000	0.19080350791	0.41185791200	
3288000000	0.19867391244	0.40482674503	
3300000000	0.20414129401	0.39370255238	
3312000000	0.21377181591	0.38629209237	
3324000000	0.20893094081	0.37996562496	
3336000000	0.20619901684	0.37377516261	
3348000000	0.20924287100	0.36772443398	
3360000000	0.21915361890	0.36317342341	
3372000000	0.23108523588	0.35088039948	
3384000000	0.24450769534	0.33873504749	
3396000000	0.25589464774	0.33744588439	
3408000000	0.25713201739	0.33664416555	
3420000000	0.26793947696	0.33247282271	
3432000000	0.27863554054	0.32623721423	
3444000000	0.28267876573	0.31587731368	
3456000000	0.29411396798	0.29499943759	
3468000000	0.30553872917	0.27498602955	
3480000000	0.31745892656	0.26303898706	
3492000000	0.33251331061	0.24965339606	
3504000000	0.34430493560	0.23333628897	
3516000000	0.34799472993	0.22110086527	
3528000000	0.34150909766	0.21484229401	
3540000000	0.33865140999	0.19943094579	
3552000000	0.34103978075	0.17167840866	
3564000000	0.34324179691	0.14315282800	
3576000000	0.33760063202	0.12049534754	
3588000000	0.34485842404	0.11059027186	
3600000000	0.35506833972	0.10328494485	
3612000000	0.35475712479	0.09259097976	
3624000000	0.34461922868	0.07678785750	
3636000000	0.32472215535	0.07055435710	
3648000000	0.31453261247	0.05664609477	
3660000000	0.30794166293	0.03583223571	
3672000000	0.31398083972	0.01375570206	
3684000000	0.30976451835	0.00884838407	
3696000000	0.31015633934	0.00864276540	
3708000000	0.30888110628	0.01259981448	
3720000000	0.29964794301	0.01191222187	
3732000000	0.28736224655	0.00907225460	
3744000000	0.26815225577	0.00069028033	
3756000000	0.26259257888	-0.01554688267	
3768000000	0.26843629248	-0.02983258437	
3780000000	0.27583506921	-0.04683726304	
3792000000	0.28012226567	-0.04771835765	
3804000000	0.28959422979	-0.04979752994	
3816000000	0.28144637489	-0.05204878081	
3828000000	0.27362973736	-0.04904639710	
3840000000	0.26254319624	-0.05568668808	
3852000000	0.25665403470	-0.07581764244	
3864000000	0.25148298917	-0.09554678947	
3876000000	0.24962970140	-0.11391522203	
3888000000	0.25495749610	-0.12533527328	
3900000000	0.25456231864	-0.13533588122	
3912000000	0.24888481740	-0.13273510039	
3924000000	0.23289826123	-0.13198932564	
3936000000	0.20910789687	-0.13389189409	
3948000000	0.19598132371	-0.14679263387	
3960000000	0.17828127023	-0.16611933038	
3972000000	0.16916191691	-0.18040141615	
3984000000	0.16016482767	-0.18724585250	
3996000000	0.15845363685	-0.18362573815	
4008000000	0.15690612425	-0.17966721974	
4020000000	0.14320272887	-0.17511921149	
4032000000	0.12515578742	-0.17051166058	
4044000000	0.10643032103	-0.17462570567	
4056000000	0.08712458324	-0.17661087317	
4068000000	0.08168798029	-0.18054603575	
4080000000	0.07763146198	-0.18405256735	
4092000000	0.07587529625	-0.18177558481	
4104000000	0.07243481639	-0.17343569641	
4116000000	0.06393745120	-0.16659156845	
4128000000	0.04979936536	-0.16298709642	
4140000000	0.03675406858	-0.16103856878	
4152000000	0.02555144737	-0.16418895833	
4164000000	0.02558060319	-0.16884579608	
4176000000	0.02366573725	-0.17693524159	
4188000000	0.02634292331	-0.17888841324	
4200000000	0.02556428428	-0.17750517044	
4212000000	0.01327820380	-0.17060329835	
4224000000	0.00126832224	-0.16193740838	
4236000000	-0.01315975716	-0.15726132562	
4248000000	-0.02577464985	-0.16008633087	
4260000000	-0.04002693599	-0.16134134992	
4272000000	-0.04467661588	-0.16202763378	
4284000000	-0.04467999434	-0.16430283850	
4296000000	-0.05486277805	-0.16336784196	
4308000000	-0.06122665533	-0.14824057399	
4320000000	-0.06382851260	-0.13609121970	
4332000000	-0.07365601121	-0.13152747832	
4344000000	-0.08252103831	-0.13105811742	
4356000000	-0.09176482862	-0.12323523927	
4368000000	-0.09603553220	-0.11985254630	
4380000000	-0.09243080564	-0.11142761684	
4392000000	-0.08718945151	-0.10630314475	
4404000000	-0.09045074490	-0.10148142031	
4416000000	-0.09666653879	-0.09372295910	
4428000000	-0.10701632098	-0.08014373241	
4440000000	-0.11451680656	-0.07719798160	
4452000000	-0.11414478618	-0.06879916461	
4464000000	-0.11301225938	-0.06771230441	
4476000000	-0.10754345363	-0.06630882065	
4488000000	-0.10668483668	-0.06340655856	
4500000000	-0.10914660051	-0.05460944389	
4512000000	-0.11015763747	-0.04027572225	
4524000000	-0.11176352954	-0.03436497841	
4536000000	-0.10970341606	-0.02493045112	
4548000000	-0.11608159817	-0.02080291077	
4560000000	-0.11133305228	-0.01798431370	
4572000000	-0.10819098837	-0.01485704057	
4584000000	-0.10762599147	-0.00808125859	
4596000000	-0.09948296248	0.00157991147	
4608000000	-0.09260901953	0.00224668652	
4620000000	-0.08922104658	0.01041452707	
4632000000	-0.08639774931	0.01358800730	
4644000000	-0.08260918293	0.02188522729	
4656000000	-0.07724701484	0.02408474358	
4668000000	-0.06725317981	0.03125995987	
4680000000	-0.05970327128	0.03565960597	
4692000000	-0.06037268936	0.03238556474	
4704000000	-0.06047654640	0.03136713930	
4716000000	-0.05918517376	0.02582752298	
4728000000	-0.05465113511	0.02303182958	
4740000000	-0.04486479829	0.02146708513	
4752000000	-0.03119320829	0.01667526249	
4764000000	-0.01658363415	0.01492593395	
4776000000	-0.01467227013	0.01228060773	
4788000000	-0.01715308200	0.01673368553	
4800000000	-0.01838625875	0.01595179228	
4812000000	-0.02223386436	0.01146430999	
4824000000	-0.02294543879	-0.00215295112	
4836000000	-0.01910266665	-0.01248251854	
4848000000	-0.01539152977	-0.01890867076	
4860000000	-0.00900145045	-0.02138671929	
4872000000	-0.00223254432	-0.01565884161	
4884000000	0.00335109493	-0.01056438754	
4896000000	0.00121325467	-0.01344104678	
4908000000	-0.00761094585	-0.01932850038	
4920000000	-0.02036225815	-0.03186243664	
4932000000	-0.02092254345	-0.03813628341	
4944000000	-0.01464990810	-0.04646971042	
4956000000	-0.00213040092	-0.05366791032	
4968000000	0.00648533016	-0.05761942347	
4980000000	0.00766999175	-0.05271139542	
4992000000	0.00089274324	-0.04747049371	
5004000000	-0.00873412029	-0.04795436376	
5016000000	-0.01925171203	-0.05384150959	
5028000000	-0.02473699813	-0.06698650412	
5040000000	-0.02040782108	-0.08487815998	
5052000000	-0.01332062288	-0.10133823906	
5064000000	-0.01031405263	-0.10743424589	
5076000000	-0.00367616439	-0.10528880506	
5088000000	-0.00292589127	-0.09925599124	
5100000000	-0.01082989155	-0.10109085054	
5112000000	-0.02733909510	-0.10695391860	
5124000000	-0.04069313049	-0.11654932687	
5136000000	-0.04644397712	-0.13028072100	
5148000000	-0.04388306543	-0.14977128006	
5160000000	-0.03994648883	-0.16189251707	
5172000000	-0.03593465022	-0.16659920548	
5184000000	-0.03266825229	-0.16530342052	
5196000000	-0.03978261930	-0.16456861018	
5208000000	-0.05628613025	-0.16640979501	
5220000000	-0.07256326467	-0.16658508742	
5232000000	-0.08543998926	-0.17466020208	
5244000000	-0.09214295500	-0.19212840560	
5256000000	-0.09893765343	-0.20425226712	
5268000000	-0.09956746896	-0.21306738771	
5280000000	-0.10501362747	-0.21062305761	
5292000000	-0.11288399591	-0.21434699336	
5304000000	-0.12776911800	-0.21048400863	
5316000000	-0.14105389885	-0.21094708959	
5328000000	-0.15827773366	-0.21800520575	
5340000000	-0.16663646940	-0.22681807716	
5352000000	-0.17456607627	-0.23958232499	
5364000000	-0.18499541019	-0.23831666435	
5376000000	-0.18804412996	-0.22900015836	
5388000000	-0.19064566947	-0.21985308629	
5400000000	-0.20260025625	-0.21686450835	
5412000000	-0.22565255913	-0.21719522904	
5424000000	-0.24868871233	-0.21487805596	
5436000000	-0.26224597477	-0.21600623243	
5448000000	-0.26720771419	-0.22201668093	
5460000000	-0.26692044829	-0.23268919703	
5472000000	-0.26917602041	-0.22620306892	
5484000000	-0.27597120844	-0.21495481703	
5496000000	-0.28786481751	-0.20309657075	
5508000000	-0.30515359892	-0.19300785633	
5520000000	-0.32532225647	-0.18702682699	
5532000000	-0.34055436175	-0.19365635394	
5544000000	-0.34899560948	-0.20514940760	
5556000000	-0.35459245577	-0.21259374035	
5568000000	-0.35582588450	-0.20655385757	
5580000000	-0.34997336805	-0.19538357087	
5592000000	-0.35374756699	-0.18047746354	
5604000000	-0.36611836593	-0.16212517332	
5616000000	-0.38067401960	-0.15048480125	
5628000000	-0.40360594608	-0.14336247978	
5640000000	-0.41848502296	-0.14400326727	
5652000000	-0.42921140949	-0.14993721381	
5664000000	-0.43137645003	-0.15061354535	
5676000000	-0.42719130557	-0.14427109134	
5688000000	-0.42774454049	-0.13649967821	
5700000000	-0.43592170647	-0.12553956982	
5712000000	-0.44759095686	-0.11595345910	
5724000000	-0.45728639207	-0.10976995909	
5736000000	-0.47031755392	-0.11043021448	
5748000000	-0.47878232325	-0.11328055397	
5760000000	-0.48055749136	-0.11448673843	
5772000000	-0.47843427001	-0.10658300291	
5784000000	-0.47444164997	-0.09642512323	
5796000000	-0.47869360495	-0.08445480189	
5808000000	-0.49250726043	-0.06626057557	
5820000000	-0.50362744696	-0.05814282132	
5832000000	-0.51671398143	-0.05502295340	
5844000000	-0.52597634969	-0.05812007474	
5856000000	-0.53288055244	-0.05760352068	
5868000000	-0.53089081083	-0.05089118522	
5880000000	-0.52462207299	-0.04057625372	
5892000000	-0.51479421513	-0.01952422154	
5904000000	-0.52937897403	0.00048733144	
5916000000	-0.54249544549	0.01722846995	
5928000000	-0.56106368160	0.03110886369	
5940000000	-0.57709261472	0.03462841172	
5952000000	-0.58390817887	0.03593581794	
5964000000	-0.58915089530	0.03420881148	
5976000000	-0.58066329073	0.03793302129	
5988000000	-0.57180989081	0.04667635883	
