! Saved from nanovna library
# Hz S RI R 50
3000000000	-0.09232889437	0.51240169859	
3012000000	-0.09244841334	0.50658299612	
3024000000	-0.07909542377	0.50446627347	
3036000000	-0.06612719263	0.51379392413	
3048000000	-0.05162966284	0.51244699845	
3060000000	-0.04314925639	0.50918313098	
3072000000	-0.03804010223	0.50426595507	
3084000000	-0.03488941867	0.50843690040	
3096000000	-0.02678348355	0.51527650774	
3108000000	-0.01143306069	0.51601277872	
3120000000	-0.00050013851	0.51225126207	
3132000000	0.01314455413	0.51368072507	
3144000000	0.03004514640	0.51252463173	
3156000000	0.05096166741	0.51791925166	
3168000000	0.06919333096	0.51265260886	
3180000000	0.09079347792	0.50594046996	
3192000000	0.11063303043	0.50138808412	
3204000000	0.12413391252	0.49442133747	
3216000000	0.13450581854	0.48210520032	
3228000000	0.15044971706	0.47633665536	
3240000000	0.16598837697	0.46507806859	
3252000000	0.18142375558	0.44852327418	
3264000000	0.18889887646	0.42670115004	
3276000000	0.20010559598	0.41048976760	
3288000000	0.20811358614	0.40305371855	
3300000000	0.21263911179	0.39202917218	
3312000000	0.22236040477	0.38210836248	
3324000000	0.21260791237	0.37470082632	
3336000000	0.21007380203	0.36961035729	
3348000000	0.21435040455	0.36279689427	
3360000000	0.22463234128	0.35621268530	
3372000000	0.23474347704	0.34408244296	
3384000000	0.24653732192	0.33056158378	
3396000000	0.25795096768	0.33119841325	
3408000000	0.25880240796	0.33021621628	
3420000000	0.27095357653	0.32609491822	
3432000000	0.27642075537	0.32146199613	
3444000000	0.28101056333	0.31191392655	
3456000000	0.29313536300	0.29082337129	
3468000000	0.30534799537	0.26958655182	
3480000000	0.31933486715	0.25658456120	
3492000000	0.33527604775	0.24005722898	
3504000000	0.34387843918	0.22776631529	
3516000000	0.34718486471	0.21514689077	
3528000000	0.33842060019	0.20782222841	
3540000000	0.33782255815	0.19335431097	
3552000000	0.33664702393	0.16574096103	
3564000000	0.33678079348	0.13722024688	
3576000000	0.33215414562	0.11510299332	
3588000000	0.33956252979	0.10567324025	
3600000000	0.34667837184	0.09882778786	
3612000000	0.34380474396	0.09123471786	
3624000000	0.33587168227	0.07717351684	
3636000000	0.31724303804	0.07102105813	
3648000000	0.30702003359	0.05727136319	
3660000000	0.30026485516	0.03817922347	
3672000000	0.30553860859	0.02079024979	
3684000000	0.30389046278	0.01474218428	
3696000000	0.30702079314	0.01512855188	
3708000000	0.30688675897	0.01941894519	
3720000000	0.29857210682	0.01888350295	
3732000000	0.28495841941	0.01447701393	
3744000000	0.26679866371	0.00695352232	
3756000000	0.26349737796	-0.01003558411	
3768000000	0.26845948619	-0.02661017452	
3780000000	0.27609853776	-0.04277647237	
3792000000	0.28167500820	-0.04561958388	
3804000000	0.28973494818	-0.04640579478	
3816000000	0.28086173401	-0.04806881448	
3828000000	0.27352080706	-0.04267382257	
3840000000	0.26348494299	-0.05124045062	
3852000000	0.25576506325	-0.07180649904	
3864000000	0.25146412109	-0.09356312980	
3876000000	0.25337304399	-0.10969692824	
3888000000	0.25631795185	-0.11961927730	
3900000000	0.25879684129	-0.12962846522	
3912000000	0.25249991248	-0.12752996980	
3924000000	0.23742869745	-0.12772239553	
3936000000	0.21437183469	-0.13056526003	
3948000000	0.20157858904	-0.14572851147	
3960000000	0.18341946992	-0.16373673840	
3972000000	0.17367070218	-0.17738283872	
3984000000	0.16727353444	-0.18565681629	
3996000000	0.16662976728	-0.18287747260	
4008000000	0.16275697045	-0.18040306813	
4020000000	0.14944455115	-0.17624651848	
4032000000	0.13165654029	-0.17251835372	
4044000000	0.11222302506	-0.17698242104	
4056000000	0.09352874301	-0.17978909623	
4068000000	0.08821245809	-0.18318194693	
4080000000	0.08457653004	-0.18909759526	
4092000000	0.08255424895	-0.18930047152	
4104000000	0.07732668883	-0.18360722064	
4116000000	0.06590085211	-0.17769243484	
4128000000	0.05044730006	-0.17115199898	
4140000000	0.03551303880	-0.17015546069	
4152000000	0.02390998198	-0.17396688597	
4164000000	0.02122944977	-0.18050979132	
4176000000	0.01617146451	-0.18411360427	
4188000000	0.01722155639	-0.18503894837	
4200000000	0.01698180006	-0.18109810821	
4212000000	0.00455787375	-0.17325343575	
4224000000	-0.00784428758	-0.16366422318	
4236000000	-0.02169469789	-0.15761596102	
4248000000	-0.03309677563	-0.15671769582	
4260000000	-0.04806334452	-0.15760612284	
4272000000	-0.05142900972	-0.15650214896	
4284000000	-0.04983264498	-0.15811650033	
4296000000	-0.05863360867	-0.15750804926	
4308000000	-0.06276488327	-0.14373375321	
4320000000	-0.06534010597	-0.13023535989	
4332000000	-0.07376011366	-0.12488866765	
4344000000	-0.08351310993	-0.12565702698	
4356000000	-0.09421267372	-0.11826347916	
4368000000	-0.09504140889	-0.11556817367	
4380000000	-0.08889306121	-0.10798322411	
4392000000	-0.08327360196	-0.10333795868	
4404000000	-0.08970832007	-0.09983359821	
4416000000	-0.09465132972	-0.09258818337	
4428000000	-0.10450702402	-0.07989222348	
4440000000	-0.11281693930	-0.07166526192	
4452000000	-0.11074396144	-0.06777642195	
4464000000	-0.11080195234	-0.06747534677	
4476000000	-0.10534358841	-0.06504945196	
4488000000	-0.10556325410	-0.06172236677	
4500000000	-0.10566706637	-0.05554246182	
4512000000	-0.10691442419	-0.03975203701	
4524000000	-0.10712975832	-0.03136875014	
4536000000	-0.10659859128	-0.02546951868	
4548000000	-0.11459389980	-0.01840233099	
4560000000	-0.10878827247	-0.01789700475	
4572000000	-0.10612000610	-0.01671293306	
4584000000	-0.10491876636	-0.01002998685	
4596000000	-0.09635396688	-0.00176902447	
4608000000	-0.09024181095	0.00159997438	
4620000000	-0.08537172510	0.00548654958	
4632000000	-0.08422164529	0.00943597972	
4644000000	-0.08236599237	0.01876265867	
4656000000	-0.07814611697	0.02251887708	
4668000000	-0.06823278842	0.02822039500	
4680000000	-0.06099778179	0.03162416476	
4692000000	-0.06181733198	0.02799552220	
4704000000	-0.06400186845	0.02962343564	
4716000000	-0.06216606488	0.02350081466	
4728000000	-0.05913627279	0.02117222307	
4740000000	-0.04899287892	0.01992473046	
4752000000	-0.03590723585	0.01586719889	
4764000000	-0.02219305481	0.01444359411	
4776000000	-0.01883937945	0.01243927732	
4788000000	-0.01894140727	0.01834015241	
4800000000	-0.02136001674	0.01826322106	
4812000000	-0.02345109099	0.01262561603	
4824000000	-0.02417216468	0.00007652862	
4836000000	-0.01976562337	-0.00900759140	
4848000000	-0.01541529597	-0.01620557910	
4860000000	-0.00827699073	-0.01814920144	
4872000000	-0.00157581695	-0.01224920087	
4884000000	0.00493457765	-0.00796239486	
4896000000	0.00299917038	-0.01097587506	
4908000000	-0.00559589570	-0.01750158466	
4920000000	-0.01853045551	-0.02872754828	
4932000000	-0.01801731057	-0.03694427900	
4944000000	-0.01017833653	-0.04500063697	
4956000000	0.00152876164	-0.05306814283	
4968000000	0.01097687807	-0.05857910309	
4980000000	0.01023687407	-0.05396583477	
4992000000	0.00433632643	-0.04993603791	
5004000000	-0.00548571113	-0.05216188829	
5016000000	-0.01776977380	-0.05954991919	
5028000000	-0.02311102904	-0.07446003485	
5040000000	-0.02110447792	-0.09088214671	
5052000000	-0.01492644419	-0.10617201139	
5064000000	-0.01235391036	-0.11157053959	
5076000000	-0.00612286729	-0.10826156981	
5088000000	-0.00728871640	-0.10317570057	
5100000000	-0.01607793221	-0.10218810550	
5112000000	-0.03223929329	-0.10721146507	
5124000000	-0.04415335759	-0.11524881400	
5136000000	-0.04934595527	-0.13092832358	
5148000000	-0.04802809746	-0.14718014008	
5160000000	-0.04255856935	-0.15820956352	
5172000000	-0.03787122840	-0.16247854696	
5184000000	-0.03373830613	-0.16114869515	
5196000000	-0.03900555884	-0.15986619221	
5208000000	-0.05537849314	-0.16259400604	
5220000000	-0.06999101885	-0.16249036364	
5232000000	-0.08206121013	-0.17216597598	
5244000000	-0.08881033187	-0.18958495349	
5256000000	-0.09429027331	-0.20254667429	
5268000000	-0.09674765604	-0.21412785269	
5280000000	-0.10112591261	-0.21147164720	
5292000000	-0.11024541141	-0.21538373689	
5304000000	-0.12507627589	-0.21132420536	
5316000000	-0.13852846983	-0.21275199111	
5328000000	-0.15616049095	-0.22074564388	
5340000000	-0.16596079828	-0.22936946571	
5352000000	-0.17465654037	-0.24198403605	
5364000000	-0.18611713526	-0.23869789216	
5376000000	-0.19005986058	-0.23125131502	
5388000000	-0.19317585645	-0.22115872285	
5400000000	-0.20444457771	-0.21873903164	
5412000000	-0.22871209806	-0.21902789402	
5424000000	-0.25107542766	-0.21724669895	
5436000000	-0.26449369826	-0.21626417441	
5448000000	-0.26743423033	-0.22238544624	
5460000000	-0.26769004930	-0.23206421127	
5472000000	-0.27008693400	-0.22434956907	
5484000000	-0.27646245211	-0.21481060443	
5496000000	-0.28895517913	-0.20102290013	
5508000000	-0.30605892501	-0.19283787724	
5520000000	-0.32483295900	-0.18592018605	
5532000000	-0.34046176630	-0.19168991135	
5544000000	-0.34880874685	-0.20333438766	
5556000000	-0.35331163075	-0.21091964020	
5568000000	-0.35352539089	-0.20663008492	
5580000000	-0.34843214103	-0.19588087342	
5592000000	-0.35190683157	-0.17728955317	
5604000000	-0.36157078447	-0.16483458135	
5616000000	-0.37992895130	-0.15085478497	
5628000000	-0.40045524312	-0.14587314261	
5640000000	-0.41684852524	-0.14710392542	
5652000000	-0.42741337546	-0.15244681325	
5664000000	-0.42953563768	-0.15311691416	
5676000000	-0.42716499654	-0.14746513307	
5688000000	-0.42720177868	-0.13943066891	
5700000000	-0.43322525361	-0.12579951522	
5712000000	-0.44758809032	-0.11624613437	
5724000000	-0.45733486609	-0.11198267753	
5736000000	-0.47074369076	-0.11108806032	
5748000000	-0.47922070094	-0.11427242477	
5760000000	-0.48110365578	-0.11583801078	
5772000000	-0.47890487042	-0.10764387387	
5784000000	-0.47532099545	-0.09817390164	
5796000000	-0.48018291138	-0.08466695479	
5808000000	-0.49366667442	-0.06793836587	
5820000000	-0.50590855193	-0.05958568219	
5832000000	-0.51697894065	-0.05766454371	
5844000000	-0.52791863203	-0.06001590197	
5856000000	-0.53431521218	-0.05978654866	
5868000000	-0.53287697146	-0.05346555045	
5880000000	-0.52737563483	-0.04347151574	
5892000000	-0.52177390558	-0.02012542835	
5904000000	-0.53248396207	0.00091072810	
5916000000	-0.54474930696	0.01628943280	
5928000000	-0.56230570029	0.03114127537	
5940000000	-0.57914210042	0.03474710085	
5952000000	-0.58506247168	0.03678865289	
5964000000	-0.58834555165	0.03602935691	
5976000000	-0.58155318936	0.04059662197	
5988000000	-0.57535227208	0.05123572063	
