! Saved from nanovna library
# Hz S RI R 50
3000000000	-0.09385276195	0.51182542841	
3012000000	-0.09392386865	0.50673523631	
3024000000	-0.07780327511	0.50442408456	
3036000000	-0.06625877770	0.51123700172	
3048000000	-0.05287151118	0.51360559671	
3060000000	-0.04374706639	0.51076504269	
3072000000	-0.03827057608	0.50506322426	
3084000000	-0.03609099778	0.50965814120	
3096000000	-0.02746009747	0.51685740303	
3108000000	-0.01127443933	0.51751531522	
3120000000	0.00126631629	0.51169540450	
3132000000	0.01502053123	0.51535074585	
3144000000	0.02830231968	0.51311845982	
3156000000	0.04962735070	0.51733654173	
3168000000	0.06929145136	0.51123849936	
3180000000	0.09280058820	0.50529486441	
3192000000	0.11120226781	0.50109563465	
3204000000	0.12468058856	0.49311192142	
3216000000	0.13289530951	0.48099720537	
3228000000	0.14942630516	0.47120226534	
3240000000	0.16660680520	0.46317910326	
3252000000	0.18022896322	0.44603199965	
3264000000	0.18788134046	0.42424682192	
3276000000	0.19916067408	0.40883036336	
3288000000	0.20525105329	0.40066573746	
3300000000	0.20994115949	0.39025323569	
3312000000	0.21719754504	0.38275616593	
3324000000	0.21292717427	0.37625731995	
3336000000	0.20861610279	0.37054066634	
3348000000	0.21260025656	0.36470255744	
3360000000	0.22291165646	0.35956866573	
3372000000	0.23473072651	0.34571157038	
3384000000	0.24736458130	0.33478422517	
3396000000	0.25954761631	0.33441070708	
3408000000	0.26034744826	0.33269083137	
3420000000	0.26915312857	0.32921549463	
3432000000	0.28076915358	0.32271683789	
3444000000	0.28474356194	0.31284857342	
3456000000	0.29533985588	0.29094192100	
3468000000	0.30728503309	0.27047225738	
3480000000	0.31995983072	0.25704328254	
3492000000	0.33667076884	0.23880604983	
3504000000	0.34584992660	0.22512193487	
3516000000	0.34730247908	0.21344467165	
3528000000	0.33589113766	0.20535301715	
3540000000	0.33447047240	0.19130964709	
3552000000	0.33603876508	0.16547392569	
3564000000	0.33814820777	0.13673651214	
3576000000	0.33601210087	0.11378452723	
3588000000	0.33917325928	0.10403981944	
3600000000	0.34678295691	0.09840073542	
3612000000	0.34456888194	0.09150205364	
3624000000	0.33539778831	0.07647052770	
3636000000	0.31832626009	0.06949809970	
3648000000	0.30722789324	0.05502897384	
3660000000	0.29992322411	0.03674233876	
3672000000	0.30537886048	0.01906391044	
3684000000	0.30261056980	0.01414626837	
3696000000	0.30501992564	0.01437019667	
3708000000	0.30455524843	0.01710655032	
3720000000	0.29542486878	0.01581575617	
3732000000	0.28128137146	0.01367445143	
3744000000	0.26358798102	0.00639596477	
3756000000	0.25976797664	-0.00892947009	
3768000000	0.26637669263	-0.02428492849	
3780000000	0.27532108451	-0.04140219806	
3792000000	0.28058710459	-0.04170964827	
3804000000	0.28756285814	-0.04476609260	
3816000000	0.27991384921	-0.04572854997	
3828000000	0.27343773617	-0.04038200491	
3840000000	0.26399301760	-0.04984866960	
3852000000	0.25733954654	-0.07143180157	
3864000000	0.25172197380	-0.08981072830	
3876000000	0.25137896794	-0.10684722667	
3888000000	0.25818922987	-0.11914923959	
3900000000	0.25961143545	-0.12817299341	
3912000000	0.25462171310	-0.12738563125	
3924000000	0.23834946652	-0.12759014507	
3936000000	0.21510126259	-0.13073218760	
3948000000	0.20047718180	-0.14567529641	
3960000000	0.18221427119	-0.16307422919	
3972000000	0.17465414623	-0.17607644603	
3984000000	0.16619040686	-0.18294797622	
3996000000	0.16673909786	-0.18136954840	
4008000000	0.16442160203	-0.17995971930	
4020000000	0.15013466674	-0.17569582881	
4032000000	0.13236031616	-0.17147875657	
4044000000	0.11343122663	-0.17604788314	
4056000000	0.09436307455	-0.17938075513	
4068000000	0.08903645909	-0.18417768221	
4080000000	0.08580001580	-0.18889897738	
4092000000	0.08271297544	-0.18924163823	
4104000000	0.07705655952	-0.18296925965	
4116000000	0.06615383454	-0.17644448820	
4128000000	0.04927654194	-0.17107539007	
4140000000	0.03709883819	-0.16983320757	
4152000000	0.02565822998	-0.17496596446	
4164000000	0.02245155994	-0.17890840557	
4176000000	0.01804001612	-0.18451291926	
4188000000	0.01839596675	-0.18587223382	
4200000000	0.01900281089	-0.18109127017	
4212000000	0.00580765367	-0.17348752196	
4224000000	-0.00703297139	-0.16365422488	
4236000000	-0.02097953485	-0.15976986401	
4248000000	-0.03324601589	-0.15835476602	
4260000000	-0.04835345482	-0.15893510671	
4272000000	-0.05072768536	-0.16012869293	
4284000000	-0.05018564727	-0.16067308955	
4296000000	-0.05883793516	-0.15826691334	
4308000000	-0.06482253928	-0.14410457187	
4320000000	-0.06597513073	-0.13121917050	
4332000000	-0.07233644411	-0.12645221311	
4344000000	-0.08617353813	-0.12802927180	
4356000000	-0.09468454818	-0.11914363694	
4368000000	-0.09512945078	-0.11545196853	
4380000000	-0.08959433833	-0.10850551769	
4392000000	-0.08388248949	-0.10519264943	
4404000000	-0.08901771850	-0.10177399428	
4416000000	-0.09613393391	-0.09344709992	
4428000000	-0.10687840093	-0.08084607945	
4440000000	-0.11269037603	-0.07469282806	
4452000000	-0.11157061835	-0.06955437154	
4464000000	-0.11384374360	-0.06754905876	
4476000000	-0.10743313969	-0.06700735456	
4488000000	-0.10733800942	-0.06143161205	
4500000000	-0.10771078031	-0.05377213522	
4512000000	-0.10926462102	-0.04077847099	
4524000000	-0.11188126881	-0.03270451483	
4536000000	-0.10830380022	-0.02407512121	
4548000000	-0.11460351180	-0.01791566789	
4560000000	-0.10802488050	-0.01710309269	
4572000000	-0.10708684909	-0.01536317134	
4584000000	-0.10577535146	-0.00709182550	
4596000000	-0.09780582627	0.00151075222	
4608000000	-0.08900037486	0.00240583828	
4620000000	-0.08654143732	0.00980325645	
4632000000	-0.08384783044	0.01160458453	
4644000000	-0.08141280061	0.02003321945	
4656000000	-0.07636840980	0.02259370707	
4668000000	-0.06654200120	0.02901537687	
4680000000	-0.05990118612	0.03256730151	
4692000000	-0.06079410491	0.02999737945	
4704000000	-0.06101333775	0.02876299593	
4716000000	-0.05817462869	0.02470184590	
4728000000	-0.05389264242	0.02048086210	
4740000000	-0.04616145181	0.01796768711	
4752000000	-0.03324425771	0.01462112953	
4764000000	-0.01967622742	0.01221870018	
4776000000	-0.01733877883	0.01220157054	
4788000000	-0.01963655323	0.01645204014	
4800000000	-0.02069372381	0.01663146499	
4812000000	-0.02410739224	0.01193667058	
4824000000	-0.02483590898	-0.00066379137	
4836000000	-0.02060959641	-0.01165886676	
4848000000	-0.01406868625	-0.01868520766	
4860000000	-0.01154721375	-0.01984977804	
4872000000	-0.00266514828	-0.01301699452	
4884000000	0.00361109940	-0.00873567031	
4896000000	0.00036998726	-0.01250011580	
4908000000	-0.00840686764	-0.01841032990	
4920000000	-0.01916628490	-0.02799043034	
4932000000	-0.02070782691	-0.03563212718	
4944000000	-0.00945327490	-0.04291955746	
4956000000	-0.00010724915	-0.05199204525	
4968000000	0.01068878544	-0.05691433664	
4980000000	0.00868997147	-0.05377702771	
4992000000	0.00435104096	-0.04922955976	
5004000000	-0.00555837087	-0.05184198410	
5016000000	-0.01714442132	-0.05944578356	
5028000000	-0.02293939882	-0.07418655887	
5040000000	-0.02156237266	-0.09123524370	
5052000000	-0.01433088540	-0.10594965373	
5064000000	-0.01091960384	-0.11143384380	
5076000000	-0.00630985321	-0.10791263961	
5088000000	-0.00588074289	-0.10066934902	
5100000000	-0.01441820427	-0.10150663852	
5112000000	-0.03167255154	-0.10665074111	
5124000000	-0.04355798913	-0.11682814507	
5136000000	-0.04860320491	-0.13261607956	
5148000000	-0.04732287312	-0.14864023724	
5160000000	-0.04359629489	-0.15852707350	
5172000000	-0.03642037730	-0.16240361824	
5184000000	-0.03339469868	-0.16126674272	
5196000000	-0.03961593432	-0.16091433718	
5208000000	-0.05453215585	-0.16316136067	
5220000000	-0.07078808325	-0.16394777312	
5232000000	-0.08320193685	-0.17291582861	
5244000000	-0.08868410393	-0.18929802529	
5256000000	-0.09524394075	-0.20406720925	
5268000000	-0.09787406339	-0.21443576728	
5280000000	-0.10115521462	-0.21187503323	
5292000000	-0.10971527933	-0.21482050268	
5304000000	-0.12581836000	-0.20973543422	
5316000000	-0.13768650606	-0.21275917153	
5328000000	-0.15594451489	-0.22080250062	
5340000000	-0.16660504588	-0.22984654419	
5352000000	-0.17561329963	-0.23740380772	
5364000000	-0.18408485284	-0.23831617797	
5376000000	-0.18783017104	-0.23040505150	
5388000000	-0.19201859941	-0.21926425197	
5400000000	-0.20246727568	-0.21816652132	
5412000000	-0.22673076042	-0.21793239830	
5424000000	-0.24887254652	-0.21661212131	
5436000000	-0.26380684116	-0.21534783220	
5448000000	-0.26658129448	-0.22505200931	
5460000000	-0.26632184489	-0.23045524155	
5472000000	-0.26946623401	-0.22570598127	
5484000000	-0.27545708155	-0.21472435013	
5496000000	-0.28657812698	-0.20280088861	
5508000000	-0.30314002398	-0.19244333401	
5520000000	-0.32353359108	-0.19048938907	
5532000000	-0.33908308261	-0.19435827668	
5544000000	-0.34861818442	-0.20518885196	
5556000000	-0.35130600680	-0.21632160833	
5568000000	-0.35280780006	-0.20838204634	
5580000000	-0.34732425238	-0.19841914194	
5592000000	-0.35114846376	-0.18079727323	
5604000000	-0.36010496560	-0.16460749859	
5616000000	-0.37840601887	-0.15375763342	
5628000000	-0.40225634510	-0.14794366443	
5640000000	-0.41824501672	-0.14752574218	
5652000000	-0.42786195013	-0.15164494267	
5664000000	-0.43173827340	-0.15410894628	
5676000000	-0.42908971545	-0.15053744378	
5688000000	-0.43038715176	-0.13954434910	
5700000000	-0.43738941208	-0.12731898010	
5712000000	-0.44668580863	-0.11417223696	
5724000000	-0.45947984732	-0.10976092197	
5736000000	-0.47181176030	-0.11061492096	
5748000000	-0.48120712989	-0.11311536124	
5760000000	-0.48276148634	-0.11361654458	
5772000000	-0.47967275889	-0.10864958315	
5784000000	-0.47359665408	-0.09563793006	
5796000000	-0.48297462581	-0.08313169000	
5808000000	-0.49262732848	-0.06869084038	
5820000000	-0.50523066909	-0.06008474245	
5832000000	-0.51695792849	-0.05699582619	
5844000000	-0.52598769389	-0.05954015166	
5856000000	-0.53282537010	-0.06013728504	
5868000000	-0.53195912708	-0.05428878104	
5880000000	-0.52433586069	-0.04157803172	
5892000000	-0.51666650497	-0.02040622687	
5904000000	-0.53058921689	-0.00166540383	
5916000000	-0.54345200187	0.01617154984	
5928000000	-0.56314476486	0.03141097865	
5940000000	-0.57952153406	0.03509673857	
5952000000	-0.58575131100	0.03684406941	
5964000000	-0.58923645371	0.03552248578	
5976000000	-0.58084990988	0.03990330495	
5988000000	-0.57556111407	0.05078027231	
