! Saved from nanovna library
# Hz S RI R 50
3000000000	-0.09201217648	0.50988692292	
3012000000	-0.09370602045	0.50468030118	
3024000000	-0.08179148254	0.50245805007	
3036000000	-0.06595084062	0.51182192376	
3048000000	-0.05282062435	0.51077853144	
3060000000	-0.04212096438	0.50890039048	
3072000000	-0.03770551421	0.50256465953	
3084000000	-0.03652933675	0.50732692630	
3096000000	-0.02754556170	0.51571282967	
3108000000	-0.01188222228	0.51542487482	
3120000000	0.00237236188	0.50897466801	
3132000000	0.01273353449	0.50956996800	
3144000000	0.02704190375	0.51076476459	
3156000000	0.04799367223	0.51533350650	
3168000000	0.06779777713	0.50959615268	
3180000000	0.09075911735	0.50328139494	
3192000000	0.10826248458	0.49908226968	
3204000000	0.12231700383	0.49117088651	
3216000000	0.12966250471	0.47884885734	
3228000000	0.14739379570	0.46959611158	
3240000000	0.16181286343	0.45998221695	
3252000000	0.17546052861	0.44512873212	
3264000000	0.18321011096	0.42339217970	
3276000000	0.19271838366	0.41035425013	
3288000000	0.19985188109	0.40203008142	
3300000000	0.20373867437	0.39295503610	
3312000000	0.21336572856	0.38637801442	
3324000000	0.20833629411	0.38112837077	
3336000000	0.20670862141	0.37629708688	
3348000000	0.21055611808	0.36996814129	
3360000000	0.22254255379	0.36510869648	
3372000000	0.23446233487	0.35265060482	
3384000000	0.24910477891	0.34049802825	
3396000000	0.26186196241	0.33935949674	
3408000000	0.26464958459	0.33565506569	
3420000000	0.27468054834	0.33077553842	
3432000000	0.28538643067	0.32345228678	
3444000000	0.28799543218	0.31144282602	
3456000000	0.29807242002	0.29004859853	
3468000000	0.31045040311	0.27059702017	
3480000000	0.32357572260	0.25513941897	
3492000000	0.33528966578	0.24084873267	
3504000000	0.34565359251	0.22397974466	
3516000000	0.34772035254	0.21127100589	
3528000000	0.33882459073	0.20432599203	
3540000000	0.33325222925	0.18904549569	
3552000000	0.33507055369	0.16607441265	
3564000000	0.33771089239	0.13754829089	
3576000000	0.33113193734	0.11510245422	
3588000000	0.33983154943	0.10679044905	
3600000000	0.34753523357	0.10074019160	
3612000000	0.34614256324	0.09319759082	
3624000000	0.33881705821	0.07655039088	
3636000000	0.32064964322	0.06982110070	
3648000000	0.31017065043	0.05434583008	
3660000000	0.30219136043	0.03494173566	
3672000000	0.30723355671	0.01451838138	
3684000000	0.30328828914	0.01172082746	
3696000000	0.30594351006	0.01192896246	
3708000000	0.30454454430	0.01477149487	
3720000000	0.29496448064	0.01494030887	
3732000000	0.28017539250	0.01063026758	
3744000000	0.26188250356	0.00624200141	
3756000000	0.25844942641	-0.00919681852	
3768000000	0.26451698994	-0.02670360746	
3780000000	0.27492297989	-0.04017208366	
3792000000	0.27967084896	-0.04292830723	
3804000000	0.28651378488	-0.04379375534	
3816000000	0.27975011878	-0.04498279568	
3828000000	0.27495055599	-0.04058580873	
3840000000	0.26504899438	-0.05057825990	
3852000000	0.25754386889	-0.07306103464	
3864000000	0.25084782699	-0.09393446133	
3876000000	0.25264596764	-0.10959790183	
3888000000	0.25552131727	-0.11839239293	
3900000000	0.25776742465	-0.12959030402	
3912000000	0.25073348913	-0.12631326033	
3924000000	0.23522009917	-0.12680976797	
3936000000	0.21183151043	-0.13002268410	
3948000000	0.19845097296	-0.14407516353	
3960000000	0.18074168871	-0.16071863188	
3972000000	0.17244079873	-0.17233628674	
3984000000	0.16821904624	-0.18092414988	
3996000000	0.16745193890	-0.17988954640	
4008000000	0.16556372213	-0.17905629782	
4020000000	0.15140956053	-0.17634416802	
4032000000	0.13370125479	-0.17256240065	
4044000000	0.11504734158	-0.17628964058	
4056000000	0.09693574387	-0.17971977343	
4068000000	0.09243380138	-0.18286082099	
4080000000	0.08862905570	-0.19095634806	
4092000000	0.08438168529	-0.19062999006	
4104000000	0.07845470288	-0.18582519292	
4116000000	0.06574971592	-0.18004639357	
4128000000	0.05035917083	-0.17339922901	
4140000000	0.03754280192	-0.17337929271	
4152000000	0.02469575471	-0.17702397493	
4164000000	0.02200168415	-0.18372144510	
4176000000	0.01566453123	-0.18868869767	
4188000000	0.01585136868	-0.18804432428	
4200000000	0.01472390415	-0.18372576657	
4212000000	0.00239849020	-0.17514134552	
4224000000	-0.01032526945	-0.16575509313	
4236000000	-0.02397043357	-0.16032638865	
4248000000	-0.03582572187	-0.15899968086	
4260000000	-0.05090490820	-0.15809013896	
4272000000	-0.05216160560	-0.15941167445	
4284000000	-0.05100412757	-0.15873926110	
4296000000	-0.05963588368	-0.15664217376	
4308000000	-0.06445878570	-0.14235440525	
4320000000	-0.06494486649	-0.12921579194	
4332000000	-0.07325057385	-0.12469367870	
4344000000	-0.08515763665	-0.12563198183	
4356000000	-0.09486755629	-0.11862743530	
4368000000	-0.09562227995	-0.11553812350	
4380000000	-0.08786433676	-0.10815763358	
4392000000	-0.08310485118	-0.10651946370	
4404000000	-0.08985215939	-0.10295980782	
4416000000	-0.09748228576	-0.09551990387	
4428000000	-0.10791423457	-0.08113204416	
4440000000	-0.11393065618	-0.07465266075	
4452000000	-0.11461716065	-0.07148494472	
4464000000	-0.11505846543	-0.07005118230	
4476000000	-0.11074321009	-0.06782574950	
4488000000	-0.11209708141	-0.06031077512	
4500000000	-0.11150481897	-0.05265618211	
4512000000	-0.11350014638	-0.03597748473	
4524000000	-0.11596187610	-0.02609561590	
4536000000	-0.11174640855	-0.01885396397	
4548000000	-0.11767029911	-0.01035919496	
4560000000	-0.11013023094	-0.01115492251	
4572000000	-0.10727449315	-0.00896827169	
4584000000	-0.10469330464	0.00083005912	
4596000000	-0.09307758968	0.00789279179	
4608000000	-0.08633027649	0.01021647455	
4620000000	-0.07908949781	0.01251920928	
4632000000	-0.07706983977	0.01537632749	
4644000000	-0.07402984573	0.01889110482	
4656000000	-0.06966446549	0.02382523594	
4668000000	-0.06133438670	0.02592742710	
4680000000	-0.05585717545	0.02854423476	
4692000000	-0.05671722448	0.02593550336	
4704000000	-0.05808078776	0.02616482864	
4716000000	-0.05676484853	0.01937960868	
4728000000	-0.05525513421	0.01475884920	
4740000000	-0.04763671363	0.01430267170	
4752000000	-0.03638411784	0.00929043603	
4764000000	-0.02623503697	0.00813700211	
4776000000	-0.02370190433	0.01140035370	
4788000000	-0.02165605587	0.01678020282	
4800000000	-0.02452023132	0.01746847017	
4812000000	-0.02664434054	0.01277828070	
4824000000	-0.02758514799	0.00288616045	
4836000000	-0.02078124326	-0.00402064700	
4848000000	-0.01367876276	-0.01351854566	
4860000000	-0.00937860419	-0.01459825959	
4872000000	0.00068747639	-0.00981586627	
4884000000	0.00884221027	-0.00731668340	
4896000000	0.00604618146	-0.01211100151	
4908000000	-0.00287804675	-0.01847904642	
4920000000	-0.01587144169	-0.02862841300	
4932000000	-0.01666933863	-0.03862841918	
4944000000	-0.00837962363	-0.04603249820	
4956000000	0.00358898623	-0.05568015215	
4968000000	0.01063272778	-0.06089561756	
4980000000	0.00984983273	-0.05779734960	
4992000000	0.00310104510	-0.05432992829	
5004000000	-0.00660502693	-0.05685099643	
5016000000	-0.01949143587	-0.06273204369	
5028000000	-0.02425778092	-0.07756497723	
5040000000	-0.02502234845	-0.09272145878	
5052000000	-0.01993008534	-0.10743511891	
5064000000	-0.01378794228	-0.11101350174	
5076000000	-0.00846572531	-0.10633052331	
5088000000	-0.00780954243	-0.10015563449	
5100000000	-0.01519143577	-0.10078432025	
5112000000	-0.03161494095	-0.10502170328	
5124000000	-0.04195110379	-0.11732280701	
5136000000	-0.04799233109	-0.13206497300	
5148000000	-0.04587681061	-0.14677056610	
5160000000	-0.04171774106	-0.15945230396	
5172000000	-0.03603098290	-0.16349551320	
5184000000	-0.03294794246	-0.16233480932	
5196000000	-0.03849626874	-0.16083661402	
5208000000	-0.05294735825	-0.16447421734	
5220000000	-0.06862918380	-0.16576647390	
5232000000	-0.08123029087	-0.17471013729	
5244000000	-0.08734267730	-0.19104246809	
5256000000	-0.09488218991	-0.20419930309	
5268000000	-0.09590250031	-0.21515899920	
5280000000	-0.09872047908	-0.21647278549	
5292000000	-0.11035663327	-0.21784923355	
5304000000	-0.12631443436	-0.21354822929	
5316000000	-0.13897110295	-0.21571567234	
5328000000	-0.15883043784	-0.22107949188	
5340000000	-0.16854773882	-0.23139966268	
5352000000	-0.17891562705	-0.24079786483	
5364000000	-0.18897576681	-0.23683395590	
5376000000	-0.19217550586	-0.22806887089	
5388000000	-0.19526825186	-0.21863770643	
5400000000	-0.20616793682	-0.21672627997	
5412000000	-0.22989206506	-0.21514370866	
5424000000	-0.25127251043	-0.21341983717	
5436000000	-0.26308825825	-0.21296814838	
5448000000	-0.26504269235	-0.21978841664	
5460000000	-0.26547422616	-0.22833063334	
5472000000	-0.26554073218	-0.22300288350	
5484000000	-0.27267736797	-0.21187421474	
5496000000	-0.28323663400	-0.20141824290	
5508000000	-0.30049630443	-0.19106187914	
5520000000	-0.32071479049	-0.18797187651	
5532000000	-0.33658505462	-0.19479400537	
5544000000	-0.34486622422	-0.20581912488	
5556000000	-0.34862004290	-0.21451970736	
5568000000	-0.34918921637	-0.21026570953	
5580000000	-0.34560271483	-0.19854774966	
5592000000	-0.34881756279	-0.18288781460	
5604000000	-0.35927712292	-0.16875662597	
5616000000	-0.37869694146	-0.15719818324	
5628000000	-0.40165282625	-0.15007358370	
5640000000	-0.41912700361	-0.15021374854	
5652000000	-0.42664723321	-0.15491885276	
5664000000	-0.43136724497	-0.15639909794	
5676000000	-0.43032992145	-0.15108687252	
5688000000	-0.43058425413	-0.14174864585	
5700000000	-0.43547722208	-0.12698654585	
5712000000	-0.44910762381	-0.11722221739	
5724000000	-0.45986059575	-0.11111015779	
5736000000	-0.47250217179	-0.11134503616	
5748000000	-0.47955282174	-0.11540576695	
5760000000	-0.48178767407	-0.11528194643	
5772000000	-0.47921214011	-0.10818009382	
5784000000	-0.47657630651	-0.09747075002	
5796000000	-0.48115690961	-0.08705409440	
5808000000	-0.49483010129	-0.06895762071	
5820000000	-0.50639362083	-0.05991521026	
5832000000	-0.51970319172	-0.05805927252	
5844000000	-0.52801080411	-0.06082728232	
5856000000	-0.53453745911	-0.05907675172	
5868000000	-0.53228021636	-0.05462435811	
5880000000	-0.52653776356	-0.04156722163	
5892000000	-0.51753836683	-0.01961784950	
5904000000	-0.53338055257	0.00207539480	
5916000000	-0.54437143582	0.01784477088	
5928000000	-0.56338742626	0.03318158200	
5940000000	-0.57983922240	0.03606169229	
5952000000	-0.58471228680	0.03833959156	
5964000000	-0.58857712783	0.03815720746	
5976000000	-0.58061192330	0.04070179252	
5988000000	-0.57425695748	0.05281044038	
