! Saved from nanovna library
# Hz S RI R 50
3000000000	-0.09715922792	0.50748836597	
3012000000	-0.09994712650	0.50298139397	
3024000000	-0.08830850899	0.50142337010	
3036000000	-0.07573306826	0.51476371945	
3048000000	-0.05927465441	0.51697482449	
3060000000	-0.04787573388	0.51592588502	
3072000000	-0.04292400706	0.51096721394	
3084000000	-0.03862640551	0.51732545301	
3096000000	-0.02438419030	0.52602509532	
3108000000	-0.00803729365	0.52434978585	
3120000000	0.00430231979	0.51670570041	
3132000000	0.01871615308	0.51980000248	
3144000000	0.03583432819	0.51795100031	
3156000000	0.06022836513	0.51941547213	
3168000000	0.08044998004	0.50910587325	
3180000000	0.10049756037	0.49966758805	
3192000000	0.12062055843	0.49228697861	
3204000000	0.13083424588	0.48280789272	
3216000000	0.13812177466	0.46820017940	
3228000000	0.15000763533	0.46099781132	
3240000000	0.16058362340	0.44928187080	
3252000000	0.16836464250	0.43384080903	
3264000000	0.17420767868	0.41517018017	
3276000000	0.18160912113	0.40434774415	
3288000000	0.18872217931	0.40069638294	
3300000000	0.19340447690	0.39546216675	
3312000000	0.20537021890	0.39127240618	
3324000000	0.20316918252	0.38732473662	
3336000000	0.20388614160	0.38309644928	
3348000000	0.21146554369	0.37683990745	
3360000000	0.22382275201	0.37028353103	
3372000000	0.23661171861	0.35596163627	
3384000000	0.25243034944	0.34390260623	
3396000000	0.26562059278	0.34136566678	
3408000000	0.26819208035	0.33701887976	
3420000000	0.27713742462	0.33139163019	
3432000000	0.28903351048	0.32172923023	
3444000000	0.29129660064	0.31058239767	
3456000000	0.29950056564	0.28778936602	
3468000000	0.31214050481	0.26737149110	
3480000000	0.32447696595	0.25265590721	
3492000000	0.33819679426	0.23432385820	
3504000000	0.34536381411	0.22028063962	
3516000000	0.34553999433	0.20819338236	
3528000000	0.33638043537	0.20047499008	
3540000000	0.33040908361	0.18622715373	
3552000000	0.33069256594	0.16435193737	
3564000000	0.33426536085	0.13745401053	
3576000000	0.32963267470	0.11657681416	
3588000000	0.33810260113	0.10560314786	
3600000000	0.34507568634	0.09963385869	
3612000000	0.34427924598	0.09037490539	
3624000000	0.33449804715	0.07715713191	
3636000000	0.31807157764	0.07098383143	
3648000000	0.30651281913	0.05424934989	
3660000000	0.29763456445	0.03614965721	
3672000000	0.30123028803	0.01847312910	
3684000000	0.29933825935	0.01727457650	
3696000000	0.30284909109	0.01756005788	
3708000000	0.30312265032	0.02114450137	
3720000000	0.29337738469	0.01890098186	
3732000000	0.28014014823	0.01585150071	
3744000000	0.26412526824	0.01089191415	
3756000000	0.26262648269	-0.00572613883	
3768000000	0.26946620696	-0.02307473652	
3780000000	0.27910364120	-0.04142447765	
3792000000	0.28248203587	-0.04345291340	
3804000000	0.28843833974	-0.04371927789	
3816000000	0.28411695816	-0.04338689910	
3828000000	0.27694151840	-0.04259990663	
3840000000	0.26472780875	-0.05444186032	
3852000000	0.25215829157	-0.07570777154	
3864000000	0.24684363655	-0.09030015727	
3876000000	0.25040300116	-0.10758918911	
3888000000	0.25250460204	-0.11698962066	
3900000000	0.25432611381	-0.12477711453	
3912000000	0.25002557876	-0.12190364407	
3924000000	0.23613960766	-0.12125088101	
3936000000	0.21370530240	-0.12477824817	
3948000000	0.19924750427	-0.13826835345	
3960000000	0.18268674060	-0.15491294778	
3972000000	0.17733248511	-0.16818054118	
3984000000	0.17347418157	-0.17433421761	
3996000000	0.17797628272	-0.17547747945	
4008000000	0.17564597045	-0.17734987883	
4020000000	0.15864609045	-0.17574206602	
4032000000	0.13975573428	-0.17115098782	
4044000000	0.12313421540	-0.17695306781	
4056000000	0.10539923082	-0.18330890238	
4068000000	0.09842157391	-0.18822104572	
4080000000	0.09421040408	-0.19842022766	
4092000000	0.09005399340	-0.19853933141	
4104000000	0.08193825413	-0.19481208524	
4116000000	0.06582202614	-0.18919886086	
4128000000	0.04893583409	-0.18169353203	
4140000000	0.03433955227	-0.17991805639	
4152000000	0.02302655369	-0.18523353476	
4164000000	0.01777160861	-0.19112991424	
4176000000	0.00899545312	-0.19507146076	
4188000000	0.00952242491	-0.19074825870	
4200000000	0.00954090103	-0.18476883691	
4212000000	-0.00303092487	-0.17438434682	
4224000000	-0.01551894785	-0.16705806676	
4236000000	-0.03250194891	-0.15781172627	
4248000000	-0.04462559503	-0.15847057720	
4260000000	-0.05729819586	-0.15718947432	
4272000000	-0.05876768814	-0.15760369445	
4284000000	-0.05594609482	-0.15694702261	
4296000000	-0.06451511925	-0.15232607140	
4308000000	-0.06690975655	-0.13942100766	
4320000000	-0.07248072892	-0.12558056689	
4332000000	-0.07561983190	-0.12151860657	
4344000000	-0.08841531832	-0.12038549753	
4356000000	-0.09444316398	-0.11292404991	
4368000000	-0.09628347220	-0.11020317070	
4380000000	-0.08684167865	-0.10454645943	
4392000000	-0.08212620609	-0.10400316076	
4404000000	-0.08902069466	-0.09912147993	
4416000000	-0.09415729792	-0.09196412308	
4428000000	-0.10617661299	-0.07711860883	
4440000000	-0.11020501735	-0.07378776136	
4452000000	-0.11343840072	-0.06706497405	
4464000000	-0.11370171108	-0.06652997718	
4476000000	-0.10699475674	-0.06548575277	
4488000000	-0.10719392559	-0.05909390800	
4500000000	-0.10849491964	-0.05111394355	
4512000000	-0.10952340369	-0.03703886256	
4524000000	-0.11242804635	-0.02669466606	
4536000000	-0.10765470730	-0.01936990007	
4548000000	-0.11163445166	-0.01292822968	
4560000000	-0.10644146264	-0.01352421802	
4572000000	-0.10519560484	-0.01298144798	
4584000000	-0.10218430206	-0.00349508620	
4596000000	-0.09092139725	0.00250926970	
4608000000	-0.08333368248	0.00438893632	
4620000000	-0.07965324907	0.00925135933	
4632000000	-0.07675289652	0.01139007999	
4644000000	-0.07524664307	0.01692931590	
4656000000	-0.07161543061	0.02054846538	
4668000000	-0.06317227610	0.02333370639	
4680000000	-0.05757961408	0.02624159185	
4692000000	-0.05838809243	0.02557584462	
4704000000	-0.05961238619	0.02563739712	
4716000000	-0.05888871754	0.01995802000	
4728000000	-0.05622195258	0.01496474513	
4740000000	-0.05002615830	0.01508925607	
4752000000	-0.03654230747	0.01123782482	
4764000000	-0.02599511552	0.00995370626	
4776000000	-0.02326423668	0.01108304621	
4788000000	-0.02217045267	0.01642338228	
4800000000	-0.02471287294	0.01733800784	
4812000000	-0.02609941777	0.01157144983	
4824000000	-0.02826795860	0.00158160549	
4836000000	-0.02082496981	-0.00437027246	
4848000000	-0.01705693783	-0.01270301394	
4860000000	-0.00903686903	-0.01284771619	
4872000000	0.00105287061	-0.00991634612	
4884000000	0.00831930378	-0.00893250515	
4896000000	0.00488842567	-0.01262092635	
4908000000	-0.00562027067	-0.01984453320	
4920000000	-0.01692582426	-0.02872406876	
4932000000	-0.01668419218	-0.03738917803	
4944000000	-0.00753286683	-0.04587572405	
4956000000	0.00420390977	-0.05490881357	
4968000000	0.01113402862	-0.06110182867	
4980000000	0.00970653375	-0.05729553014	
4992000000	0.00328569262	-0.05364016365	
5004000000	-0.00721592665	-0.05687427264	
5016000000	-0.01876989567	-0.06289841320	
5028000000	-0.02382426733	-0.07634894463	
5040000000	-0.02281459723	-0.09322819097	
5052000000	-0.01877946869	-0.10797911672	
5064000000	-0.01433713518	-0.11133783546	
5076000000	-0.00971202674	-0.10687184071	
5088000000	-0.00847551770	-0.09906794900	
5100000000	-0.01589775667	-0.10124253308	
5112000000	-0.03128466258	-0.10554769744	
5124000000	-0.04371992599	-0.11757010343	
5136000000	-0.04944520748	-0.13101629496	
5148000000	-0.04584476570	-0.14749006101	
5160000000	-0.04083550673	-0.15959762836	
5172000000	-0.03555471681	-0.16325969276	
5184000000	-0.03288513739	-0.16237536692	
5196000000	-0.03799895674	-0.16059396842	
5208000000	-0.05277732481	-0.16462521523	
5220000000	-0.06905819647	-0.16570771832	
5232000000	-0.08187485132	-0.17405543474	
5244000000	-0.08835125703	-0.19052886138	
5256000000	-0.09432417263	-0.20388303710	
5268000000	-0.09557680773	-0.21425351859	
5280000000	-0.09794843172	-0.21634086475	
5292000000	-0.11079549125	-0.21762520390	
5304000000	-0.12585434589	-0.21348892425	
5316000000	-0.13957103938	-0.21687174248	
5328000000	-0.15791812418	-0.22356425820	
5340000000	-0.16884118592	-0.23315648547	
5352000000	-0.17869081581	-0.24082563121	
5364000000	-0.18773746397	-0.23799227588	
5376000000	-0.19297399820	-0.22868595850	
5388000000	-0.19666751308	-0.21877943596	
5400000000	-0.20883637097	-0.21550547511	
5412000000	-0.23292795593	-0.21464926337	
5424000000	-0.25248679593	-0.21219253945	
5436000000	-0.26442249068	-0.21238237938	
5448000000	-0.26622906040	-0.21729892173	
5460000000	-0.26519764239	-0.22750400443	
5472000000	-0.26665918277	-0.22003144823	
5484000000	-0.27245160141	-0.20991446820	
5496000000	-0.28388826506	-0.19829781078	
5508000000	-0.30033225777	-0.19115148833	
5520000000	-0.31938230242	-0.18639318255	
5532000000	-0.33522413901	-0.19351709281	
5544000000	-0.34313489656	-0.20574623440	
5556000000	-0.34605100198	-0.21484271871	
5568000000	-0.34726051337	-0.20967084588	
5580000000	-0.34226554612	-0.19970602553	
5592000000	-0.34622745579	-0.18292570870	
5604000000	-0.35820736605	-0.17101522153	
5616000000	-0.37595092860	-0.15780650187	
5628000000	-0.40047941317	-0.15252305461	
5640000000	-0.41719353237	-0.15316653034	
5652000000	-0.42576922123	-0.15625821795	
5664000000	-0.43076502637	-0.15798085335	
5676000000	-0.42919379314	-0.15232419808	
5688000000	-0.43061344908	-0.14076493015	
5700000000	-0.43885236308	-0.12827251690	
5712000000	-0.45107236006	-0.11870840031	
5724000000	-0.46294822887	-0.11344633744	
5736000000	-0.47252842886	-0.11307963454	
5748000000	-0.48093551368	-0.11494671965	
5760000000	-0.48242423574	-0.11576687551	
5772000000	-0.48003386534	-0.10995026859	
5784000000	-0.47651317128	-0.09642745412	
5796000000	-0.48137574149	-0.08408095620	
5808000000	-0.49415304792	-0.06653517319	
5820000000	-0.50567046326	-0.05952934052	
5832000000	-0.52019056026	-0.05782156572	
5844000000	-0.52877553230	-0.06056426019	
5856000000	-0.53451748563	-0.05979913335	
5868000000	-0.53228125356	-0.05465016261	
5880000000	-0.52565603009	-0.04155203000	
5892000000	-0.51725518929	-0.01951696452	
5904000000	-0.52892686259	0.00069313223	
5916000000	-0.54488530512	0.01849888611	
5928000000	-0.56285000689	0.03317387069	
5940000000	-0.57891229679	0.03673060599	
5952000000	-0.58441535547	0.03902810986	
5964000000	-0.58754840150	0.03768415917	
5976000000	-0.57819803791	0.04152658081	
5988000000	-0.57278673870	0.05217191719	
