! Saved from nanovna library
# Hz S RI R 50
3000000000	-0.10251977763	0.50926035637	
3012000000	-0.10211670889	0.50443424219	
3024000000	-0.09451928853	0.50534337864	
3036000000	-0.07878521610	0.51571654124	
3048000000	-0.06290504822	0.52075156240	
3060000000	-0.05065962151	0.52029180194	
3072000000	-0.04508265348	0.51677084613	
3084000000	-0.04055696517	0.52407228363	
3096000000	-0.02483296169	0.53268950530	
3108000000	-0.00694841316	0.53061494787	
3120000000	0.00712601432	0.52248934470	
3132000000	0.02230311060	0.52286845079	
3144000000	0.04248076715	0.52112189372	
3156000000	0.06922903136	0.52265488277	
3168000000	0.08700804036	0.51038718546	
3180000000	0.10710090454	0.49911409763	
3192000000	0.12526943954	0.49094731923	
3204000000	0.13468690969	0.47963842395	
3216000000	0.13986221485	0.46564513736	
3228000000	0.14987064253	0.45357069669	
3240000000	0.16160836032	0.44552547201	
3252000000	0.16872481943	0.43033028385	
3264000000	0.17343184283	0.41272279588	
3276000000	0.18161395438	0.40260611048	
3288000000	0.18808185689	0.39842358487	
3300000000	0.19359579026	0.39476383183	
3312000000	0.20512116143	0.39150518404	
3324000000	0.20261894556	0.38681648701	
3336000000	0.20426974688	0.38332672372	
3348000000	0.21112003977	0.37678542033	
3360000000	0.22367628033	0.36941146111	
3372000000	0.23695775280	0.35634224264	
3384000000	0.25212897257	0.34226942908	
3396000000	0.26523306396	0.34061313549	
3408000000	0.26940855995	0.33513325311	
3420000000	0.28162641079	0.32924256652	
3432000000	0.28817784178	0.32044179472	
3444000000	0.29177486150	0.30864772429	
3456000000	0.29942538086	0.28543120714	
3468000000	0.31201420609	0.26450067776	
3480000000	0.32473456161	0.24796736188	
3492000000	0.33620161192	0.22985517188	
3504000000	0.34241560509	0.21798846017	
3516000000	0.34183321000	0.20695912664	
3528000000	0.33210731417	0.19919467187	
3540000000	0.32788817993	0.18705229200	
3552000000	0.32696415432	0.16444799243	
3564000000	0.32990114063	0.13804520614	
3576000000	0.32758402367	0.11587420055	
3588000000	0.33341554273	0.10615733373	
3600000000	0.34167855232	0.10035470731	
3612000000	0.33971283300	0.09197128042	
3624000000	0.33070957408	0.08168585180	
3636000000	0.31442049828	0.07218260099	
3648000000	0.30258962911	0.05494599548	
3660000000	0.29360731565	0.03768561191	
3672000000	0.29745125973	0.01946765206	
3684000000	0.29667760824	0.02060505794	
3696000000	0.30244746839	0.02032036874	
3708000000	0.30222178691	0.02492672545	
3720000000	0.29429754085	0.02318720887	
3732000000	0.27956581541	0.02075913451	
3744000000	0.26470904302	0.01381599572	
3756000000	0.26362401042	-0.00229077774	
3768000000	0.27020469027	-0.02101858651	
3780000000	0.28011124332	-0.03881205706	
3792000000	0.28324395632	-0.04139212242	
3804000000	0.28935589514	-0.04138668573	
3816000000	0.28225864057	-0.04056447325	
3828000000	0.27864046671	-0.03927790263	
3840000000	0.26600716823	-0.05201237104	
3852000000	0.25427338084	-0.07296634365	
3864000000	0.24785567238	-0.09049319809	
3876000000	0.25311072934	-0.10410353441	
3888000000	0.25612457822	-0.11492390911	
3900000000	0.25906251568	-0.12302178968	
3912000000	0.25360431218	-0.12069225651	
3924000000	0.23988081048	-0.12147727846	
3936000000	0.21656119472	-0.12566599522	
3948000000	0.20125588945	-0.13916130971	
3960000000	0.18579647123	-0.15494427338	
3972000000	0.18022386474	-0.16673228582	
3984000000	0.17845750911	-0.17584717218	
3996000000	0.18182268237	-0.17864852379	
4008000000	0.17756665191	-0.18135978830	
4020000000	0.16022892291	-0.17929836503	
4032000000	0.14214755932	-0.17446640250	
4044000000	0.12427332289	-0.17896402948	
4056000000	0.10863953330	-0.18863456839	
4068000000	0.10002874598	-0.19345443278	
4080000000	0.09403311440	-0.20336505138	
4092000000	0.08894052857	-0.20283022793	
4104000000	0.08068494274	-0.19828896154	
4116000000	0.06505832643	-0.19034419340	
4128000000	0.04759946670	-0.18482940834	
4140000000	0.03332587841	-0.18246002158	
4152000000	0.01967609330	-0.18679912415	
4164000000	0.01467302820	-0.19451459383	
4176000000	0.00496446687	-0.19809343540	
4188000000	0.00388380550	-0.19216120844	
4200000000	0.00395795904	-0.18563417939	
4212000000	-0.00721026286	-0.17510891603	
4224000000	-0.01931701588	-0.16416119596	
4236000000	-0.03446935361	-0.15927892646	
4248000000	-0.04638005522	-0.15443923434	
4260000000	-0.05889713497	-0.15246637267	
4272000000	-0.06029650222	-0.15325445181	
4284000000	-0.05855719719	-0.15218395804	
4296000000	-0.06388243792	-0.14917620240	
4308000000	-0.06743808103	-0.13793836036	
4320000000	-0.06805347729	-0.12212710609	
4332000000	-0.07634027478	-0.11845394826	
4344000000	-0.08566545523	-0.11945196093	
4356000000	-0.09547793769	-0.11306433351	
4368000000	-0.09540562652	-0.11001655950	
4380000000	-0.08586033177	-0.10375415236	
4392000000	-0.08133571628	-0.10311492970	
4404000000	-0.08782427631	-0.09830370795	
4416000000	-0.09283520391	-0.09189088223	
4428000000	-0.10515496783	-0.07827246522	
4440000000	-0.11021858554	-0.06994073900	
4452000000	-0.11146412217	-0.06775304911	
4464000000	-0.11130153466	-0.06698926544	
4476000000	-0.10613962309	-0.06539325264	
4488000000	-0.10645979734	-0.05841104803	
4500000000	-0.10406399396	-0.05321087509	
4512000000	-0.10894080183	-0.03688677329	
4524000000	-0.10907172775	-0.02562072815	
4536000000	-0.10687425956	-0.01912912252	
4548000000	-0.11117148445	-0.01360403425	
4560000000	-0.10322995940	-0.01681957369	
4572000000	-0.10396442607	-0.01530053984	
4584000000	-0.10159087236	-0.00653011766	
4596000000	-0.09213653557	-0.00032265689	
4608000000	-0.08603702898	0.00321238351	
4620000000	-0.07968691039	0.00616361715	
4632000000	-0.07778979338	0.00805231944	
4644000000	-0.07623297744	0.01244984076	
4656000000	-0.07326870471	0.01912209692	
4668000000	-0.06679430942	0.02341881853	
4680000000	-0.06054140008	0.02869464781	
4692000000	-0.05881886099	0.02652707696	
4704000000	-0.06069736172	0.02486771938	
4716000000	-0.05961632507	0.01989790146	
4728000000	-0.05644378010	0.01663598135	
4740000000	-0.04799382053	0.01534617257	
4752000000	-0.03649049959	0.01133800519	
4764000000	-0.02611873368	0.01058491942	
4776000000	-0.02098907469	0.01336357714	
4788000000	-0.01990109445	0.01677764221	
4800000000	-0.02205317839	0.01765156751	
4812000000	-0.02354571512	0.01165528643	
4824000000	-0.02452562013	0.00142521181	
4836000000	-0.01766324963	-0.00682790389	
4848000000	-0.01436545615	-0.01455263447	
4860000000	-0.00666327354	-0.01346491272	
4872000000	0.00396854679	-0.01101080040	
4884000000	0.01062146924	-0.00974620519	
4896000000	0.00535801602	-0.01375604591	
4908000000	-0.00417704379	-0.02087313288	
4920000000	-0.01527420922	-0.02972617305	
4932000000	-0.01531736219	-0.03859758410	
4944000000	-0.00748411095	-0.04710386212	
4956000000	0.00317580378	-0.05579991654	
4968000000	0.00976922043	-0.06244299063	
4980000000	0.00767632735	-0.05811744392	
4992000000	0.00058101764	-0.05477349986	
5004000000	-0.01177925424	-0.05770442207	
5016000000	-0.02346533990	-0.06246972175	
5028000000	-0.02833006708	-0.07514732539	
5040000000	-0.02699503987	-0.09244251859	
5052000000	-0.02208687901	-0.10576542825	
5064000000	-0.01728780757	-0.11005776396	
5076000000	-0.01227314830	-0.10464425217	
5088000000	-0.01255088468	-0.09633754866	
5100000000	-0.02012682450	-0.09717041680	
5112000000	-0.03499976718	-0.10221901520	
5124000000	-0.04752457982	-0.11226586060	
5136000000	-0.05201806521	-0.12501691190	
5148000000	-0.04801255177	-0.14045200652	
5160000000	-0.03948517106	-0.15342389801	
5172000000	-0.03304834519	-0.15757450457	
5184000000	-0.02872280422	-0.15755087399	
5196000000	-0.03271599262	-0.15833112494	
5208000000	-0.04720212809	-0.16170755590	
5220000000	-0.06339818342	-0.16465037417	
5232000000	-0.07557157715	-0.17603336751	
5244000000	-0.08224178467	-0.19207582384	
5256000000	-0.08828290552	-0.20594257619	
5268000000	-0.09148809826	-0.21706614392	
5280000000	-0.09555280058	-0.21779403037	
5292000000	-0.10806041985	-0.22428989975	
5304000000	-0.12691427073	-0.21881517917	
5316000000	-0.14256605326	-0.21645092998	
5328000000	-0.15871117848	-0.22022577818	
5340000000	-0.16744131349	-0.23007460743	
5352000000	-0.17519572674	-0.24033007540	
5364000000	-0.18722545734	-0.23894790209	
5376000000	-0.19082960840	-0.22814911581	
5388000000	-0.19352926425	-0.21747648964	
5400000000	-0.20577830856	-0.21490174953	
5412000000	-0.22764061442	-0.21641709704	
5424000000	-0.24662073453	-0.21647275731	
5436000000	-0.25953404613	-0.21453381726	
5448000000	-0.25820175942	-0.22355183955	
5460000000	-0.25863815981	-0.23839116076	
5472000000	-0.26488422614	-0.23182758881	
5484000000	-0.27574068898	-0.22013132085	
5496000000	-0.28691905278	-0.20502470113	
5508000000	-0.30422530072	-0.19712809042	
5520000000	-0.32524466737	-0.19143220324	
5532000000	-0.33943268856	-0.19354553734	
5544000000	-0.34516594335	-0.20592627735	
5556000000	-0.34609576734	-0.21771287632	
5568000000	-0.34689061003	-0.21240176057	
5580000000	-0.34184146102	-0.20229419508	
5592000000	-0.34647667187	-0.18747741520	
5604000000	-0.35911937733	-0.17322811863	
5616000000	-0.37813866140	-0.16203126728	
5628000000	-0.40209747346	-0.15522313859	
5640000000	-0.42033891731	-0.15642920692	
5652000000	-0.43206505176	-0.15803690965	
5664000000	-0.43086739995	-0.15519716603	
5676000000	-0.42756578421	-0.15112855172	
5688000000	-0.42758025673	-0.14248603526	
5700000000	-0.43517638114	-0.12808501288	
5712000000	-0.44691941977	-0.11966063103	
5724000000	-0.46078970098	-0.11607367396	
5736000000	-0.47207673667	-0.11630599134	
5748000000	-0.48153252197	-0.12042920860	
5760000000	-0.48403114040	-0.12293528285	
5772000000	-0.48538291957	-0.11462141128	
5784000000	-0.48175542520	-0.09846654661	
5796000000	-0.48831496306	-0.08044417613	
5808000000	-0.49585759266	-0.06680179812	
5820000000	-0.50898990860	-0.05699075157	
5832000000	-0.52125190783	-0.05400366651	
5844000000	-0.52875201870	-0.05629406518	
5856000000	-0.53136726270	-0.05514414023	
5868000000	-0.52931829788	-0.05137066208	
5880000000	-0.52100611841	-0.03827226697	
5892000000	-0.51207383805	-0.01871373097	
5904000000	-0.52673259034	-0.00039458434	
5916000000	-0.53999045877	0.01516738517	
5928000000	-0.55791286103	0.02956483583	
5940000000	-0.57572593226	0.03320404059	
5952000000	-0.58098808065	0.03271408331	
5964000000	-0.58552893532	0.03048116063	
5976000000	-0.57589036231	0.03438867157	
5988000000	-0.57160981183	0.04412723485	
