! Saved from nanovna library
# Hz S RI R 50
3000000000	-0.09780460696	0.53362204750	
3012000000	-0.09509762348	0.52841222108	
3024000000	-0.07439366281	0.52960475151	
3036000000	-0.05915857718	0.53414781322	
3048000000	-0.03686203249	0.53272733585	
3060000000	-0.02261550481	0.52840803886	
3072000000	-0.01195728102	0.51692036773	
3084000000	-0.00655048641	0.51318239692	
3096000000	0.00542333952	0.51205999899	
3108000000	0.01676407122	0.50533909697	
3120000000	0.02801900712	0.49462407411	
3132000000	0.04066167355	0.48961909098	
3144000000	0.05186574396	0.47984563809	
3156000000	0.06525842474	0.47668925238	
3168000000	0.07534715088	0.46994716736	
3180000000	0.09291055950	0.46389781860	
3192000000	0.10327483594	0.46021114395	
3204000000	0.11316897415	0.45380467155	
3216000000	0.11365952777	0.44778334691	
3228000000	0.12839854139	0.44797954713	
3240000000	0.14169015000	0.44042832024	
3252000000	0.15182926585	0.43071243100	
3264000000	0.16327243032	0.41657596478	
3276000000	0.17528365945	0.40738654780	
3288000000	0.18385582118	0.40759568706	
3300000000	0.19880052227	0.40295150341	
3312000000	0.21273507553	0.39744409950	
3324000000	0.21491025593	0.39232302029	
3336000000	0.21787880611	0.38820350697	
3348000000	0.22954421584	0.37616792671	
3360000000	0.24445801821	0.36454065884	
3372000000	0.25523998765	0.34082764472	
3384000000	0.26517323671	0.32485015515	
3396000000	0.27265515326	0.31969721162	
3408000000	0.27465424675	0.31393920060	
3420000000	0.27591384979	0.30730723949	
3432000000	0.28376812581	0.29661878702	
3444000000	0.27983312809	0.28717926878	
3456000000	0.28183982616	0.26985748816	
3468000000	0.29175715760	0.25210691037	
3480000000	0.29796443013	0.24204165921	
3492000000	0.30854768459	0.23196011280	
3504000000	0.32074922541	0.22668666487	
3516000000	0.32371387930	0.21872705865	
3528000000	0.32086271209	0.21078849878	
3540000000	0.31851288775	0.20077836029	
3552000000	0.32469829408	0.18044379591	
3564000000	0.33282340030	0.15212667281	
3576000000	0.33024073906	0.12733291161	
3588000000	0.33847170663	0.11503069839	
3600000000	0.34500361276	0.11026363481	
3612000000	0.34549882773	0.10249947875	
3624000000	0.34046086425	0.08903522102	
3636000000	0.32502091042	0.07812485392	
3648000000	0.30945925206	0.05981526728	
3660000000	0.30036416741	0.04639858785	
3672000000	0.30875737578	0.03474479352	
3684000000	0.31481553531	0.02444743405	
3696000000	0.31381574245	0.02306811311	
3708000000	0.31428035086	0.02482423683	
3720000000	0.30479343924	0.02362884507	
3732000000	0.29048938261	0.02502177199	
3744000000	0.28056580666	0.01494028350	
3756000000	0.27629842465	-0.00497747416	
3768000000	0.28494547109	-0.02691359952	
3780000000	0.28754685435	-0.04763847645	
3792000000	0.28469900616	-0.04809458346	
3804000000	0.29092094053	-0.04183471990	
3816000000	0.28836321961	-0.04135319703	
3828000000	0.28392892533	-0.04291245633	
3840000000	0.27038141736	-0.04882851306	
3852000000	0.26682927576	-0.06690295024	
3864000000	0.26859959016	-0.08941971486	
3876000000	0.27057968096	-0.11010593195	
3888000000	0.27453399079	-0.12451389948	
3900000000	0.27721526279	-0.13707058833	
3912000000	0.26866296546	-0.14324005934	
3924000000	0.24633520588	-0.14770295537	
3936000000	0.21730168035	-0.14752132684	
3948000000	0.19889435485	-0.15973881686	
3960000000	0.17930947481	-0.17193991507	
3972000000	0.17562847801	-0.18176083685	
3984000000	0.17359131286	-0.19242878743	
3996000000	0.17387422046	-0.19589768797	
4008000000	0.16702926022	-0.19704123442	
4020000000	0.15017567122	-0.19349554116	
4032000000	0.12689770028	-0.18681636482	
4044000000	0.10847106831	-0.18914775397	
4056000000	0.09334707033	-0.19474250567	
4068000000	0.08483506016	-0.20246188721	
4080000000	0.07666067081	-0.20989747861	
4092000000	0.06874073170	-0.20660299926	
4104000000	0.06041759862	-0.19748716691	
4116000000	0.04895714938	-0.18562888629	
4128000000	0.03504574651	-0.18237705717	
4140000000	0.02175708938	-0.18045168330	
4152000000	0.00631626109	-0.18395396582	
4164000000	0.00219366308	-0.18470155592	
4176000000	-0.00043567340	-0.18492430256	
4188000000	0.00526214514	-0.18101814787	
4200000000	0.00920488929	-0.17771337467	
4212000000	-0.00259601677	-0.16807270218	
4224000000	-0.01463701310	-0.15716175414	
4236000000	-0.02791771812	-0.15027780141	
4248000000	-0.04143889217	-0.15292534160	
4260000000	-0.05372407001	-0.15150922646	
4272000000	-0.05605666254	-0.14878866343	
4284000000	-0.05380275994	-0.14500798002	
4296000000	-0.05560374659	-0.14229861930	
4308000000	-0.05818737968	-0.13047953780	
4320000000	-0.06432966967	-0.11847507163	
4332000000	-0.06795824564	-0.11360504786	
4344000000	-0.08137494191	-0.11330458353	
4356000000	-0.08460048918	-0.10786278125	
4368000000	-0.08676937210	-0.10720324809	
4380000000	-0.07964905122	-0.10177528475	
4392000000	-0.08061541449	-0.10280749777	
4404000000	-0.08462709337	-0.09308708493	
4416000000	-0.09057103300	-0.08634874667	
4428000000	-0.10472757334	-0.07256295908	
4440000000	-0.10980938780	-0.06774062920	
4452000000	-0.11520431248	-0.06419361854	
4464000000	-0.11530584093	-0.06249472390	
4476000000	-0.10506348520	-0.06287250644	
4488000000	-0.10133694087	-0.05773338741	
4500000000	-0.09568897419	-0.05156070422	
4512000000	-0.09772117130	-0.03843594336	
4524000000	-0.09901000274	-0.02299643836	
4536000000	-0.09319265527	-0.01372993014	
4548000000	-0.10455977514	-0.00534242313	
4560000000	-0.10502113110	-0.00482867093	
4572000000	-0.10971363958	-0.01206427328	
4584000000	-0.11086086359	-0.01037517633	
4596000000	-0.09784118685	-0.00964274167	
4608000000	-0.08322992028	-0.00946271622	
4620000000	-0.07438137791	-0.00573839865	
4632000000	-0.06397641592	0.00021275569	
4644000000	-0.06149624712	0.00873211822	
4656000000	-0.05829374752	0.01727317792	
4668000000	-0.05197320936	0.02772139502	
4680000000	-0.04517868942	0.03343096976	
4692000000	-0.04508722368	0.03202197608	
4704000000	-0.04925589902	0.03237101874	
4716000000	-0.04839153527	0.02764279844	
4728000000	-0.04544474927	0.02136076962	
4740000000	-0.03907012429	0.02151526129	
4752000000	-0.02701064322	0.01861376770	
4764000000	-0.01347370360	0.01819602071	
4776000000	-0.00645912505	0.01599499216	
4788000000	-0.00474427505	0.01670790289	
4800000000	-0.00784919574	0.01534609751	
4812000000	-0.00941930320	0.00581748592	
4824000000	-0.01171235280	-0.00690985503	
4836000000	-0.00652128677	-0.01877012079	
4848000000	-0.00764259198	-0.02922490718	
4860000000	-0.00173054846	-0.02849576882	
4872000000	0.00526394338	-0.02689618259	
4884000000	0.00711836640	-0.02664344211	
4896000000	0.00153239481	-0.02660341022	
4908000000	-0.00867277897	-0.03263995378	
4920000000	-0.01994255809	-0.04364165750	
4932000000	-0.02326956655	-0.05220594836	
4944000000	-0.01875568193	-0.05944024733	
4956000000	-0.01060759732	-0.06693280222	
4968000000	-0.00331810978	-0.06932462144	
4980000000	-0.00790875747	-0.06463031517	
4992000000	-0.01638491047	-0.05601429939	
5004000000	-0.02486015092	-0.05381882020	
5016000000	-0.03531294561	-0.05792020041	
5028000000	-0.03742319565	-0.06889623204	
5040000000	-0.03165313030	-0.07814259594	
5052000000	-0.01805618759	-0.09256763934	
5064000000	-0.01063701583	-0.09941510900	
5076000000	-0.00330090831	-0.09820446264	
5088000000	-0.00124704292	-0.09397626431	
5100000000	-0.00635347146	-0.09839798479	
5112000000	-0.02111629516	-0.10797226820	
5124000000	-0.03380299715	-0.12315680905	
5136000000	-0.04180557261	-0.14015151885	
5148000000	-0.04216915101	-0.15795659086	
5160000000	-0.03836556106	-0.16861284678	
5172000000	-0.03509122736	-0.17313146493	
5184000000	-0.03662512144	-0.17243951143	
5196000000	-0.04241515622	-0.16687789270	
5208000000	-0.05902500201	-0.16612494946	
5220000000	-0.07684457662	-0.16853324288	
5232000000	-0.08938676918	-0.17580998548	
5244000000	-0.09657727295	-0.18848063046	
5256000000	-0.10096028058	-0.20296621976	
5268000000	-0.10172512628	-0.21106585470	
5280000000	-0.10366378696	-0.21103611726	
5292000000	-0.11107000963	-0.21738010638	
5304000000	-0.12635229904	-0.21253737431	
5316000000	-0.13928953645	-0.21470616904	
5328000000	-0.15663793824	-0.22263632421	
5340000000	-0.16775912976	-0.23038639239	
5352000000	-0.17815105299	-0.23576811465	
5364000000	-0.18684442662	-0.23279239516	
5376000000	-0.18881545848	-0.22211834174	
5388000000	-0.19443594360	-0.21387432003	
5400000000	-0.20828387180	-0.21110715764	
5412000000	-0.23240841421	-0.21000643087	
5424000000	-0.25137866395	-0.20966608101	
5436000000	-0.26519383473	-0.21016496555	
5448000000	-0.26790873082	-0.21610529200	
5460000000	-0.26715941913	-0.22992394340	
5472000000	-0.27236929901	-0.22479650299	
5484000000	-0.28224969309	-0.21451631767	
5496000000	-0.29526530450	-0.20210913642	
5508000000	-0.31233385335	-0.19666761286	
5520000000	-0.33531253564	-0.19404714028	
5532000000	-0.35162855522	-0.19665555914	
5544000000	-0.35960266957	-0.20925307092	
5556000000	-0.36245658650	-0.21641505088	
5568000000	-0.36209073662	-0.21377206848	
5580000000	-0.35770736536	-0.20242466526	
5592000000	-0.36074628591	-0.18691211865	
5604000000	-0.36946048663	-0.17006227884	
5616000000	-0.38845113127	-0.15948574193	
5628000000	-0.40900496748	-0.15613253486	
5640000000	-0.42677422057	-0.15750411171	
5652000000	-0.43494691998	-0.16105764272	
5664000000	-0.43521872059	-0.16157694861	
5676000000	-0.43327556090	-0.15778761160	
5688000000	-0.43440210585	-0.14912033863	
5700000000	-0.44503162362	-0.13808808613	
5712000000	-0.45676199306	-0.12536799150	
5724000000	-0.47197033363	-0.11946814687	
5736000000	-0.48421504096	-0.12010375761	
5748000000	-0.49279796329	-0.12399711095	
5760000000	-0.49370204725	-0.12672892031	
5772000000	-0.49186707494	-0.11642187745	
5784000000	-0.48658274755	-0.10401799043	
5796000000	-0.48999334021	-0.08695306847	
5808000000	-0.50365418100	-0.07140714043	
5820000000	-0.51653035778	-0.06203982963	
5832000000	-0.52873066665	-0.06048078658	
5844000000	-0.53824721693	-0.06033716760	
5856000000	-0.54294565784	-0.06141823722	
5868000000	-0.53980343148	-0.05396233892	
5880000000	-0.52997297987	-0.04141312714	
5892000000	-0.52141387425	-0.02374886815	
5904000000	-0.53379366321	-0.00022673658	
5916000000	-0.54431688892	0.01489531405	
5928000000	-0.56446409152	0.02940727400	
5940000000	-0.58025961506	0.03316423383	
5952000000	-0.58579864989	0.03203700653	
5964000000	-0.58930453598	0.02980987459	
5976000000	-0.58235268860	0.03211618773	
5988000000	-0.57837097360	0.04255408443	
